LAMMPS (4 Feb 2025)
OMP_NUM_THREADS environment is not set. Defaulting to 1 thread. (src/comm.cpp:99)
  using 1 OpenMP thread(s) per MPI task
# LAMMPS script for running NVT simulation

units       metal                   # Energies in eV, distances in A
dimension   3
boundary    p p p
atom_style  full

read_data   ../start.lammps-data
Reading data file ...
  orthogonal box = (0 0 0) to (154.008 148.19427 151.07317)
  8 by 4 by 8 MPI processor grid
  reading atoms ...
  11640 atoms
  scanning bonds ...
  2 = max bonds/atom
  reading velocities ...
  11640 velocities
  scanning angles ...
  1 = max angles/atom
  orthogonal box = (0 0 0) to (154.008 148.19427 151.07317)
  8 by 4 by 8 MPI processor grid
  reading bonds ...
  2000 bonds
  reading angles ...
  1000 angles
Finding 1-2 1-3 1-4 neighbors ...
  special bond factors lj:    0        0        0       
  special bond factors coul:  0        0        0       
     2 = max # of 1-2 neighbors
     1 = max # of 1-3 neighbors
     1 = max # of 1-4 neighbors
     2 = max # of special neighbors
  special bonds CPU = 2.242 seconds
  read_data CPU = 2.389 seconds

bond_style   zero                    # SPC/E rigid model
bond_coeff   1 1.0                   # SPC/E rigid model
angle_style  zero                    # SPC/E rigid model
angle_coeff  1 109.47                # SPC/E rigid model
pair_style   lj/cut/coul/long 9.0    # Cutoff radius of 0.9 nm = 9 A
kspace_style pppm 1.0e-5             # Particle-particle particle-mesh Ewald summation
pair_coeff   1 1 0.0      1.0        # Ignore C-C
pair_coeff   1 2 0.0      1.0        # Ignore C-H
pair_coeff   1 3 0.004551 3.367      # LJ for C-O (0.4391 kJ/mol = 0.004551 eV)
pair_coeff   2 2 0.0      1.0        # SPC/E H-H
pair_coeff   2 3 0.0      1.0        # SPC/E H-O
pair_coeff   3 3 0.006735 3.166      # SPC/E O-O (0.1553 kcal/mol = 0.006735 eV)

set type 2 charge 0.4238            # SPC/E H
Setting atom values ...
  2000 settings made for charge
set type 3 charge -0.8476           # SPC/E O
Setting atom values ...
  1000 settings made for charge

variable t equal step

group graphene type 1
8640 atoms in group graphene
group H2O type 2 3
3000 atoms in group H2O

######### Energy minimization #########

thermo 10
fix graphene_fix graphene setforce 0.0 0.0 0.0
fix rigid_bonds H2O shake 0.0001 10 10000 b 1 a 1
Finding SHAKE clusters ...
       0 = # of size 2 clusters
       0 = # of size 3 clusters
       0 = # of size 4 clusters
    1000 = # of frozen angles
  find clusters CPU = 0.060 seconds
minimize 0.0 0.0 1000 1000000
PPPM initialization ...
  using 12-bit tables for long-range coulomb (src/kspace.cpp:342)
  G vector (1/distance) = 0.27466065
  grid = 72 72 72
  stencil order = 5
  estimated absolute RMS force accuracy = 0.00016054877
  estimated relative force accuracy = 1.1149495e-05
  using double precision KISS FFT
  3d grid and FFT values/proc = 4508 1800
Generated 0 of 3 mixed pair_coeff terms from geometric mixing rule
WARNING: Using fix shake with minimization.
  Substituting constraints with harmonic restraint forces using kbond=86.17 (src/RIGID/fix_shake.cpp:386)
Neighbor list info ...
  update: every = 1 steps, delay = 0 steps, check = yes
  max neighbors/atom: 2000, page size: 100000
  master list distance cutoff = 11
  ghost atom cutoff = 11
  binsize = 5.5, bins = 29 27 28
  1 neighbor lists, perpetual/occasional/extra = 1 0 0
  (1) pair lj/cut/coul/long, perpetual
      attributes: half, newton on
      pair build: half/bin/newton
      stencil: half/bin/3d
      bin: standard
Per MPI rank memory allocation (min/avg/max) = 9.172 | 9.243 | 10.8 Mbytes
   Step          Temp          E_pair         E_mol          TotEng         Press     
         0   85.521157     -429.07228      0             -311.4637       194.09109    
        10   85.521157     -481.43472      0             -357.83936      85.80658     
        20   85.521157     -517.12359      0             -386.4499       70.640479    
        30   85.521157     -527.37807      0             -399.36149      72.184207    
        40   85.521157     -533.72345      0             -406.84635      103.81111    
        50   85.521157     -544.28676      0             -414.04508      83.008625    
        53   85.521157     -544.23142      0              3573977.7     -589941.46    
SHAKE stats (type/ave/delta/count) on step 53
Bond:   1   1.82841   36.3213         1996
Angle:  1   103.578   168.18           996
Loop time of 1.28814 on 256 procs for 53 steps with 11640 atoms

99.3% CPU use with 256 MPI tasks x 1 OpenMP threads

Minimization stats:
  Stopping criterion = linesearch alpha is zero
  Energy initial, next-to-last, final = 
     -429.072283975757   -534.43535873036   3573860.06036176
  Force two-norm initial, final = 55.663706 60896.054
  Force max component initial, final = 3.2918466 11677.418
  Final line search alpha, max atom move = 1.0265874e-10 1.198789e-06
  Iterations, force evaluations = 53 131

MPI task timing breakdown:
Section |  min time  |  avg time  |  max time  |%varavg| %total
---------------------------------------------------------------
Pair    | 1.7625e-05 | 0.015975   | 0.95019    |  61.6 |  1.24
Bond    | 1.9229e-05 | 4.1947e-05 | 0.00014104 |   0.0 |  0.00
Kspace  | 0.28701    | 1.2371     | 1.2563     |   7.2 | 96.04
Neigh   | 0.0062964  | 0.0065975  | 0.0067067  |   0.1 |  0.51
Comm    | 0.0001416  | 0.0039561  | 0.0273     |   9.7 |  0.31
Output  | 0.00061104 | 0.00062323 | 0.00066604 |   0.0 |  0.05
Modify  | 0.0002104  | 0.001237   | 0.0050925  |   1.2 |  0.10
Other   |            | 0.02257    |            |       |  1.75

Nlocal:        45.4688 ave        1415 max           0 min
Histogram: 224 23 4 2 0 0 2 0 0 1
Nghost:        274.965 ave        2787 max           0 min
Histogram: 186 3 23 26 9 5 0 3 0 1
Neighs:        5072.62 ave      303658 max           0 min
Histogram: 249 4 0 0 1 1 0 0 0 1

Total # of neighbors = 1298591
Ave neighs/atom = 111.5628
Ave special neighs/atom = 0.51546392
Neighbor list builds = 1
Dangerous builds = 0
unfix graphene_fix
reset_timestep 0

######### Soft run to prevent explosion #########

thermo 150
timestep 0.00001
fix NVT1 H2O nvt temp 300 300 $(20.0*dt)
fix NVT1 H2O nvt temp 300 300 0.00020000000000000000958
run 1500
PPPM initialization ...
  using 12-bit tables for long-range coulomb (src/kspace.cpp:342)
  G vector (1/distance) = 0.27466065
  grid = 72 72 72
  stencil order = 5
  estimated absolute RMS force accuracy = 0.00016054877
  estimated relative force accuracy = 1.1149495e-05
  using double precision KISS FFT
  3d grid and FFT values/proc = 4508 1800
Generated 0 of 3 mixed pair_coeff terms from geometric mixing rule
SHAKE stats (type/ave/delta/count) on step 0
Bond:   1   1.00684   0.0171896       2000
Angle:  1   108.14    3.32723         1000
Per MPI rank memory allocation (min/avg/max) = 8.047 | 8.118 | 9.677 Mbytes
   Step          Temp          E_pair         E_mol          TotEng         Press     
         0   85.521157     -544.23142      0             -426.62284      881.55572    
       150   56.220027     -522.54482      0             -445.23111     -49.486903    
       300   55.274181     -519.21643      0             -443.20345     -46.692431    
       450   54.337495     -514.08939      0             -439.36454     -42.171599    
       600   54.200795     -507.67586      0             -433.139       -36.112258    
       750   56.112284     -500.61867      0             -423.45313     -28.643776    
       900   56.147125     -493.56105      0             -416.34759     -21.316012    
      1050   56.382449     -487.11723      0             -409.58016     -14.103715    
      1200   56.706322     -481.80361      0             -403.82115     -7.6057405    
      1350   57.878722     -477.85972      0             -398.26498     -1.8158665    
      1500   57.743959     -475.32322      0             -395.9138       2.4013152    
Loop time of 11.2929 on 256 procs for 1500 steps with 11640 atoms

Performance: 0.115 ns/day, 209.127 hours/ns, 132.827 timesteps/s, 1.546 Matom-step/s
99.9% CPU use with 256 MPI tasks x 1 OpenMP threads

MPI task timing breakdown:
Section |  min time  |  avg time  |  max time  |%varavg| %total
---------------------------------------------------------------
Pair    | 0.0001297  | 0.11873    | 7.4841     | 176.4 |  1.05
Bond    | 0.00011991 | 0.00025573 | 0.00064767 |   0.0 |  0.00
Kspace  | 3.2173     | 10.253     | 10.411     |  18.1 | 90.79
Neigh   | 0          | 0          | 0          |   0.0 |  0.00
Comm    | 0.00043021 | 0.089599   | 0.76315    |  56.0 |  0.79
Output  | 0.0016202  | 0.0016683  | 0.0017817  |   0.1 |  0.01
Modify  | 0.2703     | 0.79528    | 0.91208    |  18.1 |  7.04
Other   |            | 0.03418    |            |       |  0.30

Nlocal:        45.4688 ave        1414 max           0 min
Histogram: 224 23 4 2 0 0 2 0 0 1
Nghost:        274.941 ave        2786 max           0 min
Histogram: 186 3 23 26 9 5 0 3 0 1
Neighs:        5069.85 ave      303138 max           0 min
Histogram: 249 4 0 0 1 1 0 0 0 1

Total # of neighbors = 1297881
Ave neighs/atom = 111.5018
Ave special neighs/atom = 0.51546392
Neighbor list builds = 0
Dangerous builds = 0
unfix NVT1
reset_timestep 0

######### A little bit faster #########

thermo 150
timestep 0.00002
fix NVT1 H2O nvt temp 300 300 $(25.0*dt)
fix NVT1 H2O nvt temp 300 300 0.00050000000000000001041
run 1500
PPPM initialization ...
  using 12-bit tables for long-range coulomb (src/kspace.cpp:342)
  G vector (1/distance) = 0.27466065
  grid = 72 72 72
  stencil order = 5
  estimated absolute RMS force accuracy = 0.00016054877
  estimated relative force accuracy = 1.1149495e-05
  using double precision KISS FFT
  3d grid and FFT values/proc = 4508 1800
Generated 0 of 3 mixed pair_coeff terms from geometric mixing rule
SHAKE stats (type/ave/delta/count) on step 0
Bond:   1   1         1.08467e-10     2000
Angle:  1   109.47    1.05916e-08     1000
Per MPI rank memory allocation (min/avg/max) = 8.047 | 8.118 | 9.677 Mbytes
   Step          Temp          E_pair         E_mol          TotEng         Press     
         0   57.743959     -475.32322      0             -395.9138       2.4027642    
       150   55.286612     -473.65767      0             -397.6276       7.0070308    
       300   57.500938     -474.25601      0             -395.1808       10.369882    
       450   55.778011     -474.74663      0             -398.04079      11.405146    
       600   56.211438     -474.41636      0             -397.11446      12.338227    
       750   57.010929     -473.86188      0             -395.46052      12.159077    
       900   56.034605     -473.53335      0             -396.47463      10.235824    
      1050   56.570293     -473.21493      0             -395.41953      8.0450748    
      1200   58.924901     -472.55865      0             -391.5252       6.2456648    
      1350   53.89318      -471.50042      0             -397.38659      2.722538     
      1500   55.610604     -470.54647      0             -394.07084      0.89244183   
Loop time of 11.2798 on 256 procs for 1500 steps with 11640 atoms

Performance: 0.230 ns/day, 104.442 hours/ns, 132.981 timesteps/s, 1.548 Matom-step/s
100.0% CPU use with 256 MPI tasks x 1 OpenMP threads

MPI task timing breakdown:
Section |  min time  |  avg time  |  max time  |%varavg| %total
---------------------------------------------------------------
Pair    | 0.00011766 | 0.11869    | 7.471      | 176.2 |  1.05
Bond    | 0.00012723 | 0.00026591 | 0.00047623 |   0.0 |  0.00
Kspace  | 3.2154     | 10.238     | 10.395     |  18.1 | 90.76
Neigh   | 0.0062879  | 0.0066596  | 0.0067756  |   0.2 |  0.06
Comm    | 0.00052694 | 0.089522   | 0.76063    |  55.8 |  0.79
Output  | 0.0015769  | 0.0016301  | 0.0017404  |   0.1 |  0.01
Modify  | 0.2677     | 0.79151    | 0.90827    |  18.1 |  7.02
Other   |            | 0.03365    |            |       |  0.30

Nlocal:        45.4688 ave        1416 max           0 min
Histogram: 224 23 4 2 0 1 1 0 0 1
Nghost:        274.973 ave        2786 max           0 min
Histogram: 186 3 23 26 9 5 0 3 0 1
Neighs:        5069.77 ave      303015 max           0 min
Histogram: 249 4 0 0 1 1 0 0 0 1

Total # of neighbors = 1297860
Ave neighs/atom = 111.5
Ave special neighs/atom = 0.51546392
Neighbor list builds = 1
Dangerous builds = 0
unfix NVT1
reset_timestep 0

######### And faster still #########

thermo 150
timestep 0.00005
fix NVT1 H2O nvt temp 300 300 $(30.0*dt)
fix NVT1 H2O nvt temp 300 300 0.0015000000000000000312
run 1500
PPPM initialization ...
  using 12-bit tables for long-range coulomb (src/kspace.cpp:342)
  G vector (1/distance) = 0.27466065
  grid = 72 72 72
  stencil order = 5
  estimated absolute RMS force accuracy = 0.00016054877
  estimated relative force accuracy = 1.1149495e-05
  using double precision KISS FFT
  3d grid and FFT values/proc = 4508 1800
Generated 0 of 3 mixed pair_coeff terms from geometric mixing rule
SHAKE stats (type/ave/delta/count) on step 0
Bond:   1   1         7.54936e-10     2000
Angle:  1   109.47    7.85903e-08     1000
Per MPI rank memory allocation (min/avg/max) = 8.047 | 8.118 | 9.677 Mbytes
   Step          Temp          E_pair         E_mol          TotEng         Press     
         0   55.610604     -470.54647      0             -394.07084      0.89806563   
       150   55.676629     -469.42642      0             -392.85999     -5.1413598    
       300   56.911427     -467.37987      0             -389.11535     -8.6691979    
       450   57.347425     -464.22911      0             -385.36501     -9.8273806    
       600   56.934385     -462.69614      0             -384.40005     -10.995638    
       750   54.445626     -461.3226       0             -386.44904     -11.433181    
       900   55.381064     -460.25015      0             -384.09019     -10.812849    
      1050   55.297806     -458.212        0             -382.16653     -9.3717143    
      1200   56.714729     -456.47765      0             -378.48363     -6.5562403    
      1350   56.709812     -455.37222      0             -377.38496     -3.7175267    
      1500   56.638274     -455.81428      0             -377.9254      -2.6226286    
Loop time of 11.3398 on 256 procs for 1500 steps with 11640 atoms

Performance: 0.571 ns/day, 41.999 hours/ns, 132.277 timesteps/s, 1.540 Matom-step/s
100.0% CPU use with 256 MPI tasks x 1 OpenMP threads

MPI task timing breakdown:
Section |  min time  |  avg time  |  max time  |%varavg| %total
---------------------------------------------------------------
Pair    | 0.00011682 | 0.11882    | 7.4939     | 176.4 |  1.05
Bond    | 0.00012683 | 0.0002633  | 0.00062408 |   0.0 |  0.00
Kspace  | 3.2271     | 10.272     | 10.428     |  18.1 | 90.58
Neigh   | 0.01872    | 0.01959    | 0.019836   |   0.2 |  0.17
Comm    | 0.00069705 | 0.089911   | 0.76167    |  55.9 |  0.79
Output  | 0.0015797  | 0.0016328  | 0.001742   |   0.1 |  0.01
Modify  | 0.26962    | 0.80541    | 0.92291    |  18.1 |  7.10
Other   |            | 0.0327     |            |       |  0.29

Nlocal:        45.4688 ave        1410 max           0 min
Histogram: 224 23 4 2 0 1 1 0 0 1
Nghost:        274.734 ave        2786 max           0 min
Histogram: 186 3 23 26 10 4 0 3 0 1
Neighs:        5066.95 ave      301684 max           0 min
Histogram: 249 4 0 0 1 1 0 0 0 1

Total # of neighbors = 1297139
Ave neighs/atom = 111.43806
Ave special neighs/atom = 0.51546392
Neighbor list builds = 3
Dangerous builds = 0
unfix NVT1
reset_timestep 0

######### NVT equilibration for 10 ns #############

thermo 10000
#dump DUMP1 all atom 100 nvt_equi.lammpstrj
timestep 0.001
fix NVT1 H2O nvt temp 300 300 $(100.0*dt)
fix NVT1 H2O nvt temp 300 300 0.10000000000000000555
run 10000000
PPPM initialization ...
  using 12-bit tables for long-range coulomb (src/kspace.cpp:342)
  G vector (1/distance) = 0.27466065
  grid = 72 72 72
  stencil order = 5
  estimated absolute RMS force accuracy = 0.00016054877
  estimated relative force accuracy = 1.1149495e-05
  using double precision KISS FFT
  3d grid and FFT values/proc = 4508 1800
Generated 0 of 3 mixed pair_coeff terms from geometric mixing rule
SHAKE stats (type/ave/delta/count) on step 0
Bond:   1   1         1.31552e-09     2000
Angle:  1   109.47    1.07934e-07     1000
Per MPI rank memory allocation (min/avg/max) = 8.047 | 8.118 | 9.677 Mbytes
   Step          Temp          E_pair         E_mol          TotEng         Press     
         0   56.638274     -455.81428      0             -377.9254      -2.6862437    
SHAKE stats (type/ave/delta/count) on step 10000
Bond:   1   1         1.44722e-06     2000
Angle:  1   109.47    0.000105016     1000
     10000   55.842958     -462.6682       0             -385.87304     -10.169818    
SHAKE stats (type/ave/delta/count) on step 20000
Bond:   1   1         1.38946e-06     2000
Angle:  1   109.47    8.68253e-05     1000
     20000   55.200074     -463.17961      0             -387.26854     -7.6620068    
SHAKE stats (type/ave/delta/count) on step 30000
Bond:   1   1         1.17316e-06     2000
Angle:  1   109.47    8.38864e-05     1000
     30000   56.704847     -459.68397      0             -381.70354     -3.2032201    
SHAKE stats (type/ave/delta/count) on step 40000
Bond:   1   1         1.18461e-06     2000
Angle:  1   109.47    0.000118        1000
     40000   55.64189      -458.01388      0             -381.49523     -4.243766     
SHAKE stats (type/ave/delta/count) on step 50000
Bond:   1   1         1.88263e-06     2000
Angle:  1   109.47    0.000131103     1000
     50000   56.900641     -460.0591       0             -381.80941     -5.9130054    
SHAKE stats (type/ave/delta/count) on step 60000
Bond:   1   1         1.10836e-06     2000
Angle:  1   109.47    0.000128112     1000
     60000   55.362207     -461.04663      0             -384.91259      2.528585     
SHAKE stats (type/ave/delta/count) on step 70000
Bond:   1   1         1.09925e-06     2000
Angle:  1   109.47    9.13895e-05     1000
     70000   55.295203     -461.49016      0             -385.44827      1.0990561    
SHAKE stats (type/ave/delta/count) on step 80000
Bond:   1   1         1.12953e-06     2000
Angle:  1   109.47    0.000105358     1000
     80000   56.748705     -461.37697      0             -383.33623     -2.53794      
SHAKE stats (type/ave/delta/count) on step 90000
Bond:   1   1         1.63476e-06     2000
Angle:  1   109.47    0.000125794     1000
     90000   55.558385     -457.81401      0             -381.41019     -4.2052492    
SHAKE stats (type/ave/delta/count) on step 100000
Bond:   1   1         1.55176e-06     2000
Angle:  1   109.47    0.000107646     1000
    100000   57.461128     -456.80558      0             -377.78511     -6.5645522    
SHAKE stats (type/ave/delta/count) on step 110000
Bond:   1   1         1.11682e-06     2000
Angle:  1   109.47    9.63274e-05     1000
    110000   57.461509     -457.62405      0             -378.60306     -3.8399297    
SHAKE stats (type/ave/delta/count) on step 120000
Bond:   1   1         1.4738e-06      2000
Angle:  1   109.47    9.88882e-05     1000
    120000   55.594429     -461.11801      0             -384.66463     -2.8124792    
SHAKE stats (type/ave/delta/count) on step 130000
Bond:   1   1         1.44862e-06     2000
Angle:  1   109.47    9.58903e-05     1000
    130000   56.834894     -463.78578      0             -385.62651      2.2470543    
SHAKE stats (type/ave/delta/count) on step 140000
Bond:   1   1         1.00328e-06     2000
Angle:  1   109.47    8.43541e-05     1000
    140000   55.810202     -459.89287      0             -383.14275     -7.0469129    
SHAKE stats (type/ave/delta/count) on step 150000
Bond:   1   1         1.26477e-06     2000
Angle:  1   109.47    0.000102137     1000
    150000   56.573283     -459.15348      0             -381.35397     -1.9418476    
SHAKE stats (type/ave/delta/count) on step 160000
Bond:   1   1         1.3454e-06      2000
Angle:  1   109.47    9.26067e-05     1000
    160000   56.444436     -455.65363      0             -378.03132     -2.5065821    
SHAKE stats (type/ave/delta/count) on step 170000
Bond:   1   1         1.45285e-06     2000
Angle:  1   109.47    0.000119486     1000
    170000   55.233695     -459.47383      0             -383.51652     -11.319787    
SHAKE stats (type/ave/delta/count) on step 180000
Bond:   1   1         1.10877e-06     2000
Angle:  1   109.47    8.8603e-05      1000
    180000   56.376758     -457.5338       0             -380.00455     -6.886787     
SHAKE stats (type/ave/delta/count) on step 190000
Bond:   1   1         1.37234e-06     2000
Angle:  1   109.47    0.0001126       1000
    190000   55.650043     -460.38084      0             -383.85097     -1.4083917    
SHAKE stats (type/ave/delta/count) on step 200000
Bond:   1   1         1.18211e-06     2000
Angle:  1   109.47    9.94212e-05     1000
    200000   56.807718     -457.74671      0             -379.62481     -3.4042375    
SHAKE stats (type/ave/delta/count) on step 210000
Bond:   1   1         1.51782e-06     2000
Angle:  1   109.47    0.000111974     1000
    210000   54.684892     -461.16598      0             -385.96339     -1.9094473    
SHAKE stats (type/ave/delta/count) on step 220000
Bond:   1   1         1.43677e-06     2000
Angle:  1   109.47    0.000116298     1000
    220000   56.437793     -459.23348      0             -381.6203      -5.0778604    
SHAKE stats (type/ave/delta/count) on step 230000
Bond:   1   1         1.26104e-06     2000
Angle:  1   109.47    8.69334e-05     1000
    230000   55.252627     -460.86344      0             -384.8801      -1.5852845    
SHAKE stats (type/ave/delta/count) on step 240000
Bond:   1   1         1.21329e-06     2000
Angle:  1   109.47    9.39645e-05     1000
    240000   57.794675     -463.10889      0             -383.62973      0.98432187   
SHAKE stats (type/ave/delta/count) on step 250000
Bond:   1   1         9.91821e-07     2000
Angle:  1   109.47    8.76336e-05     1000
    250000   56.326254     -463.58324      0             -386.12345     -2.4663442    
SHAKE stats (type/ave/delta/count) on step 260000
Bond:   1   1         1.1313e-06      2000
Angle:  1   109.47    0.000116645     1000
    260000   55.291431     -456.2972       0             -380.2605      -9.0067233    
SHAKE stats (type/ave/delta/count) on step 270000
Bond:   1   1         1.39515e-06     2000
Angle:  1   109.47    0.000104662     1000
    270000   56.307807     -467.2509       0             -389.81648     -1.2668029    
SHAKE stats (type/ave/delta/count) on step 280000
Bond:   1   1         1.2985e-06      2000
Angle:  1   109.47    0.000130938     1000
    280000   57.402977     -464.47004      0             -385.52954     -0.57070606   
SHAKE stats (type/ave/delta/count) on step 290000
Bond:   1   1         2.16197e-06     2000
Angle:  1   109.47    0.000162059     1000
    290000   54.970412     -458.95791      0             -383.36268     -3.2187394    
SHAKE stats (type/ave/delta/count) on step 300000
Bond:   1   1         1.25138e-06     2000
Angle:  1   109.47    0.000103955     1000
    300000   56.109905     -459.03582      0             -381.87355      5.5158519    
SHAKE stats (type/ave/delta/count) on step 310000
Bond:   1   1         1.08088e-06     2000
Angle:  1   109.47    8.42944e-05     1000
    310000   56.174415     -457.67576      0             -380.42477     -5.5710718    
SHAKE stats (type/ave/delta/count) on step 320000
Bond:   1   1         1.06788e-06     2000
Angle:  1   109.47    8.69253e-05     1000
    320000   58.135689     -457.26922      0             -377.3211       2.0534033    
SHAKE stats (type/ave/delta/count) on step 330000
Bond:   1   1         1.17673e-06     2000
Angle:  1   109.47    9.46786e-05     1000
    330000   54.294045     -458.08739      0             -383.42229     -4.1331171    
SHAKE stats (type/ave/delta/count) on step 340000
Bond:   1   1         1.78331e-06     2000
Angle:  1   109.47    0.000139361     1000
    340000   57.196829     -455.99894      0             -377.34193     -6.2851482    
SHAKE stats (type/ave/delta/count) on step 350000
Bond:   1   1         1.31758e-06     2000
Angle:  1   109.47    0.000101609     1000
    350000   55.747061     -460.59554      0             -383.93225     -5.8213533    
SHAKE stats (type/ave/delta/count) on step 360000
Bond:   1   1         1.15394e-06     2000
Angle:  1   109.47    8.51503e-05     1000
    360000   56.354335     -461.01616      0             -383.51775     -4.2997537    
SHAKE stats (type/ave/delta/count) on step 370000
Bond:   1   1         1.33093e-06     2000
Angle:  1   109.47    0.000125748     1000
    370000   56.068948     -459.03314      0             -381.92719     -3.6048207    
SHAKE stats (type/ave/delta/count) on step 380000
Bond:   1   1         1.31971e-06     2000
Angle:  1   109.47    0.000106403     1000
    380000   54.987429     -463.36153      0             -387.74289      0.1249956    
SHAKE stats (type/ave/delta/count) on step 390000
Bond:   1   1         1.13412e-06     2000
Angle:  1   109.47    0.000139921     1000
    390000   56.660257     -458.81093      0             -380.89181     -2.8189866    
SHAKE stats (type/ave/delta/count) on step 400000
Bond:   1   1         1.1591e-06      2000
Angle:  1   109.47    0.00010446      1000
    400000   56.110039     -461.4623       0             -384.29985     -1.993037     
SHAKE stats (type/ave/delta/count) on step 410000
Bond:   1   1         1.21564e-06     2000
Angle:  1   109.47    8.94236e-05     1000
    410000   55.101871     -454.33935      0             -378.56333      2.0383422    
SHAKE stats (type/ave/delta/count) on step 420000
Bond:   1   1         1.5058e-06      2000
Angle:  1   109.47    9.91653e-05     1000
    420000   57.200666     -462.87757      0             -384.21529     -0.38272008   
SHAKE stats (type/ave/delta/count) on step 430000
Bond:   1   1         1.16699e-06     2000
Angle:  1   109.47    8.91294e-05     1000
    430000   57.898868     -455.75308      0             -376.13063     -4.4432081    
SHAKE stats (type/ave/delta/count) on step 440000
Bond:   1   1         1.14091e-06     2000
Angle:  1   109.47    9.19292e-05     1000
    440000   55.939209     -457.23232      0             -380.3048      -1.4975734    
SHAKE stats (type/ave/delta/count) on step 450000
Bond:   1   1         1.77326e-06     2000
Angle:  1   109.47    0.00011248      1000
    450000   55.440236     -464.52532      0             -388.28398     -3.8806999    
SHAKE stats (type/ave/delta/count) on step 460000
Bond:   1   1         1.06366e-06     2000
Angle:  1   109.47    0.000108232     1000
    460000   57.651945     -459.2751       0             -379.99222     -3.5932833    
SHAKE stats (type/ave/delta/count) on step 470000
Bond:   1   1         1.01611e-06     2000
Angle:  1   109.47    8.77176e-05     1000
    470000   58.508247     -456.52077      0             -376.0603       2.0926099    
SHAKE stats (type/ave/delta/count) on step 480000
Bond:   1   1         1.97504e-06     2000
Angle:  1   109.47    0.000182943     1000
    480000   56.194049     -458.10854      0             -380.83056     -1.8506242    
SHAKE stats (type/ave/delta/count) on step 490000
Bond:   1   1         1.12712e-06     2000
Angle:  1   109.47    8.54729e-05     1000
    490000   56.52774      -463.29757      0             -385.56069     -3.3719348    
SHAKE stats (type/ave/delta/count) on step 500000
Bond:   1   1         1.3966e-06      2000
Angle:  1   109.47    0.000119991     1000
    500000   55.177796     -462.2801       0             -386.39967      2.2390329    
SHAKE stats (type/ave/delta/count) on step 510000
Bond:   1   1         1.31547e-06     2000
Angle:  1   109.47    7.93505e-05     1000
    510000   57.323688     -457.92538      0             -379.09392     -7.0592018    
SHAKE stats (type/ave/delta/count) on step 520000
Bond:   1   1         1.12297e-06     2000
Angle:  1   109.47    8.76517e-05     1000
    520000   57.23164      -457.10341      0             -378.39854     -3.5741421    
SHAKE stats (type/ave/delta/count) on step 530000
Bond:   1   1         1.33666e-06     2000
Angle:  1   109.47    9.6833e-05      1000
    530000   54.352938     -458.9981       0             -384.25201     -1.775528     
SHAKE stats (type/ave/delta/count) on step 540000
Bond:   1   1         1.29015e-06     2000
Angle:  1   109.47    9.3973e-05      1000
    540000   56.33538      -460.38165      0             -382.90931     -8.4198121    
SHAKE stats (type/ave/delta/count) on step 550000
Bond:   1   1         1.10205e-06     2000
Angle:  1   109.47    0.000114627     1000
    550000   54.784811     -457.87948      0             -382.53948     -4.259738     
SHAKE stats (type/ave/delta/count) on step 560000
Bond:   1   1         1.00584e-06     2000
Angle:  1   109.47    8.58381e-05     1000
    560000   56.647939     -456.17424      0             -378.27207     -5.6445048    
SHAKE stats (type/ave/delta/count) on step 570000
Bond:   1   1         1.20483e-06     2000
Angle:  1   109.47    8.53408e-05     1000
    570000   55.414912     -459.98273      0             -383.77622     -10.450224    
SHAKE stats (type/ave/delta/count) on step 580000
Bond:   1   1         1.1989e-06      2000
Angle:  1   109.47    9.4191e-05      1000
    580000   57.467519     -456.13172      0             -377.10247      0.33132628   
SHAKE stats (type/ave/delta/count) on step 590000
Bond:   1   1         1.06567e-06     2000
Angle:  1   109.47    9.27527e-05     1000
    590000   56.892163     -452.48169      0             -374.24367     -2.4015716    
SHAKE stats (type/ave/delta/count) on step 600000
Bond:   1   1         1.46612e-06     2000
Angle:  1   109.47    0.000111841     1000
    600000   58.078947     -460.5878       0             -380.71771     -5.456251     
SHAKE stats (type/ave/delta/count) on step 610000
Bond:   1   1         1.5106e-06      2000
Angle:  1   109.47    9.40065e-05     1000
    610000   56.624261     -459.18561      0             -381.316       -2.663894     
SHAKE stats (type/ave/delta/count) on step 620000
Bond:   1   1         1.05263e-06     2000
Angle:  1   109.47    9.00187e-05     1000
    620000   57.414168     -454.06168      0             -375.10579     -6.5315294    
SHAKE stats (type/ave/delta/count) on step 630000
Bond:   1   1         1.15864e-06     2000
Angle:  1   109.47    0.000128381     1000
    630000   54.465877     -458.39113      0             -383.48973     -10.816281    
SHAKE stats (type/ave/delta/count) on step 640000
Bond:   1   1         1.56411e-06     2000
Angle:  1   109.47    0.000104454     1000
    640000   57.281139     -458.88573      0             -380.11278     -4.8046851    
SHAKE stats (type/ave/delta/count) on step 650000
Bond:   1   1         1.13457e-06     2000
Angle:  1   109.47    0.000101679     1000
    650000   54.758927     -457.54089      0             -382.23648     -6.9630641    
SHAKE stats (type/ave/delta/count) on step 660000
Bond:   1   1         1.07311e-06     2000
Angle:  1   109.47    9.73887e-05     1000
    660000   55.16107      -454.081        0             -378.22356     -2.7740214    
SHAKE stats (type/ave/delta/count) on step 670000
Bond:   1   1         1.03219e-06     2000
Angle:  1   109.47    9.08949e-05     1000
    670000   55.602952     -458.37752      0             -381.91242     -5.1327277    
SHAKE stats (type/ave/delta/count) on step 680000
Bond:   1   1         1.08468e-06     2000
Angle:  1   109.47    9.70132e-05     1000
    680000   54.539215     -454.06386      0             -379.0616      -6.3954217    
SHAKE stats (type/ave/delta/count) on step 690000
Bond:   1   1         1.18061e-06     2000
Angle:  1   109.47    8.82191e-05     1000
    690000   56.233028     -461.09694      0             -383.76535     -0.32494639   
SHAKE stats (type/ave/delta/count) on step 700000
Bond:   1   1         1.07375e-06     2000
Angle:  1   109.47    9.5234e-05      1000
    700000   57.790877     -460.12265      0             -380.64871     -1.4152742    
SHAKE stats (type/ave/delta/count) on step 710000
Bond:   1   1         1.11763e-06     2000
Angle:  1   109.47    8.99504e-05     1000
    710000   56.912129     -460.28666      0             -382.02117     -4.7991949    
SHAKE stats (type/ave/delta/count) on step 720000
Bond:   1   1         1.84997e-06     2000
Angle:  1   109.47    0.000110592     1000
    720000   55.738977     -459.50331      0             -382.85115     -3.7171033    
SHAKE stats (type/ave/delta/count) on step 730000
Bond:   1   1         1.15734e-06     2000
Angle:  1   109.47    8.66854e-05     1000
    730000   57.755829     -460.75513      0             -381.32939      5.5391922    
SHAKE stats (type/ave/delta/count) on step 740000
Bond:   1   1         1.39413e-06     2000
Angle:  1   109.47    0.000113824     1000
    740000   55.334911     -459.30302      0             -383.20652     -2.7994777    
SHAKE stats (type/ave/delta/count) on step 750000
Bond:   1   1         1.30019e-06     2000
Angle:  1   109.47    0.000102838     1000
    750000   54.977292     -460.783        0             -385.1783       2.2166712    
SHAKE stats (type/ave/delta/count) on step 760000
Bond:   1   1         1.11652e-06     2000
Angle:  1   109.47    0.000107069     1000
    760000   57.141745     -459.68175      0             -381.10049     -1.4512963    
SHAKE stats (type/ave/delta/count) on step 770000
Bond:   1   1         1.84278e-06     2000
Angle:  1   109.47    0.000125835     1000
    770000   57.879078     -461.93362      0             -382.33839      0.5985551    
SHAKE stats (type/ave/delta/count) on step 780000
Bond:   1   1         1.07003e-06     2000
Angle:  1   109.47    0.000104031     1000
    780000   56.294604     -457.84541      0             -380.42915      1.5709328    
SHAKE stats (type/ave/delta/count) on step 790000
Bond:   1   1         1.16333e-06     2000
Angle:  1   109.47    9.58807e-05     1000
    790000   58.10292      -459.83968      0             -379.93663      5.8611186    
SHAKE stats (type/ave/delta/count) on step 800000
Bond:   1   1         1.5046e-06      2000
Angle:  1   109.47    0.000142713     1000
    800000   54.911307     -455.33958      0             -379.82562      0.20943793   
SHAKE stats (type/ave/delta/count) on step 810000
Bond:   1   1         1.01602e-06     2000
Angle:  1   109.47    9.2735e-05      1000
    810000   55.674913     -457.91054      0             -381.34647      3.8493968    
SHAKE stats (type/ave/delta/count) on step 820000
Bond:   1   1         1.23654e-06     2000
Angle:  1   109.47    9.74301e-05     1000
    820000   55.146126     -456.18727      0             -380.35039     -2.4949186    
SHAKE stats (type/ave/delta/count) on step 830000
Bond:   1   1         1.00949e-06     2000
Angle:  1   109.47    8.60755e-05     1000
    830000   55.395063     -459.06882      0             -382.8896      -3.418318     
SHAKE stats (type/ave/delta/count) on step 840000
Bond:   1   1         1.55699e-06     2000
Angle:  1   109.47    0.000129454     1000
    840000   55.014057     -462.4835       0             -386.82824     -6.3943847    
SHAKE stats (type/ave/delta/count) on step 850000
Bond:   1   1         9.95021e-07     2000
Angle:  1   109.47    8.52434e-05     1000
    850000   56.450544     -460.40546      0             -382.77475     -3.2092456    
SHAKE stats (type/ave/delta/count) on step 860000
Bond:   1   1         1.17952e-06     2000
Angle:  1   109.47    0.000110565     1000
    860000   57.680571     -462.81766      0             -383.49541      2.7779177    
SHAKE stats (type/ave/delta/count) on step 870000
Bond:   1   1         1.16631e-06     2000
Angle:  1   109.47    8.65239e-05     1000
    870000   55.270292     -459.06954      0             -383.06191     -2.1787534    
SHAKE stats (type/ave/delta/count) on step 880000
Bond:   1   1         1.3597e-06      2000
Angle:  1   109.47    0.000127668     1000
    880000   56.468185     -455.68289      0             -378.02792     -7.0616282    
SHAKE stats (type/ave/delta/count) on step 890000
Bond:   1   1         1.37467e-06     2000
Angle:  1   109.47    9.47697e-05     1000
    890000   58.517447     -458.88764      0             -378.41452     -5.266091     
SHAKE stats (type/ave/delta/count) on step 900000
Bond:   1   1         1.14167e-06     2000
Angle:  1   109.47    9.63391e-05     1000
    900000   55.989691     -462.97397      0             -385.97702      3.9983526    
SHAKE stats (type/ave/delta/count) on step 910000
Bond:   1   1         1.11858e-06     2000
Angle:  1   109.47    9.93353e-05     1000
    910000   58.586168     -457.9586       0             -377.39098     -7.5533566    
SHAKE stats (type/ave/delta/count) on step 920000
Bond:   1   1         1.38137e-06     2000
Angle:  1   109.47    9.14115e-05     1000
    920000   56.283409     -466.00669      0             -388.60582     -1.7244183    
SHAKE stats (type/ave/delta/count) on step 930000
Bond:   1   1         2.32847e-06     2000
Angle:  1   109.47    0.000167517     1000
    930000   56.929955     -459.47924      0             -381.18925     -5.0026619    
SHAKE stats (type/ave/delta/count) on step 940000
Bond:   1   1         1.17616e-06     2000
Angle:  1   109.47    9.65046e-05     1000
    940000   58.61984      -459.31834      0             -378.70441      0.40608999   
SHAKE stats (type/ave/delta/count) on step 950000
Bond:   1   1         1.19333e-06     2000
Angle:  1   109.47    9.04046e-05     1000
    950000   57.03321      -459.64816      0             -381.21617     -2.5659394    
SHAKE stats (type/ave/delta/count) on step 960000
Bond:   1   1         1.21692e-06     2000
Angle:  1   109.47    0.000101306     1000
    960000   56.257951     -457.90588      0             -380.54002     -6.9155715    
SHAKE stats (type/ave/delta/count) on step 970000
Bond:   1   1         1.07442e-06     2000
Angle:  1   109.47    8.66304e-05     1000
    970000   57.542189     -459.17277      0             -380.04083     -5.8492593    
SHAKE stats (type/ave/delta/count) on step 980000
Bond:   1   1         1.53631e-06     2000
Angle:  1   109.47    0.000113555     1000
    980000   55.010578     -459.14615      0             -383.49567     -8.9745092    
SHAKE stats (type/ave/delta/count) on step 990000
Bond:   1   1         1.0907e-06      2000
Angle:  1   109.47    0.000101563     1000
    990000   55.074393     -458.34582      0             -382.60759     -10.247282    
SHAKE stats (type/ave/delta/count) on step 1000000
Bond:   1   1         1.31807e-06     2000
Angle:  1   109.47    9.98056e-05     1000
   1000000   56.930139     -458.73424      0             -380.44399     -2.6183713    
SHAKE stats (type/ave/delta/count) on step 1010000
Bond:   1   1         1.70796e-06     2000
Angle:  1   109.47    0.000124242     1000
   1010000   57.385284     -460.39843      0             -381.48226     -4.820547     
SHAKE stats (type/ave/delta/count) on step 1020000
Bond:   1   1         1.89587e-06     2000
Angle:  1   109.47    0.000144771     1000
   1020000   53.142604     -458.4981       0             -385.41646     -4.9562234    
SHAKE stats (type/ave/delta/count) on step 1030000
Bond:   1   1         1.14047e-06     2000
Angle:  1   109.47    0.000107034     1000
   1030000   57.190379     -455.58353      0             -376.93539     -5.650818     
SHAKE stats (type/ave/delta/count) on step 1040000
Bond:   1   1         1.17659e-06     2000
Angle:  1   109.47    9.16264e-05     1000
   1040000   55.696359     -455.8188       0             -379.22524     -9.9833718    
SHAKE stats (type/ave/delta/count) on step 1050000
Bond:   1   1         1.52178e-06     2000
Angle:  1   109.47    0.00010293      1000
   1050000   54.321689     -463.31442      0             -388.6113       0.26175498   
SHAKE stats (type/ave/delta/count) on step 1060000
Bond:   1   1         1.07992e-06     2000
Angle:  1   109.47    8.5274e-05      1000
   1060000   57.629326     -454.55216      0             -375.30038     -1.21468      
SHAKE stats (type/ave/delta/count) on step 1070000
Bond:   1   1         1.14934e-06     2000
Angle:  1   109.47    8.32984e-05     1000
   1070000   58.62351      -458.69879      0             -378.07982     -7.6179995    
SHAKE stats (type/ave/delta/count) on step 1080000
Bond:   1   1         1.3361e-06      2000
Angle:  1   109.47    0.000102316     1000
   1080000   56.424314     -459.91939      0             -382.32474     -2.035562     
SHAKE stats (type/ave/delta/count) on step 1090000
Bond:   1   1         1.03612e-06     2000
Angle:  1   109.47    8.0226e-05      1000
   1090000   55.969079     -460.63319      0             -383.66458     -4.4267378    
SHAKE stats (type/ave/delta/count) on step 1100000
Bond:   1   1         1.05335e-06     2000
Angle:  1   109.47    9.82353e-05     1000
   1100000   55.711297     -458.39177      0             -381.77767     -8.3745279    
SHAKE stats (type/ave/delta/count) on step 1110000
Bond:   1   1         1.24171e-06     2000
Angle:  1   109.47    9.46774e-05     1000
   1110000   57.221501     -460.805        0             -382.11407      1.2441836    
SHAKE stats (type/ave/delta/count) on step 1120000
Bond:   1   1         1.3041e-06      2000
Angle:  1   109.47    9.95919e-05     1000
   1120000   56.226        -463.20357      0             -385.88165      0.9453205    
SHAKE stats (type/ave/delta/count) on step 1130000
Bond:   1   1         1.12664e-06     2000
Angle:  1   109.47    0.000109457     1000
   1130000   56.341068     -461.63593      0             -384.15576     -5.7313003    
SHAKE stats (type/ave/delta/count) on step 1140000
Bond:   1   1         1.04375e-06     2000
Angle:  1   109.47    9.00331e-05     1000
   1140000   54.241898     -458.00821      0             -383.41483     -1.3920889    
SHAKE stats (type/ave/delta/count) on step 1150000
Bond:   1   1         1.16778e-06     2000
Angle:  1   109.47    8.9183e-05      1000
   1150000   56.373829     -460.29216      0             -382.76695     -4.7510591    
SHAKE stats (type/ave/delta/count) on step 1160000
Bond:   1   1         1.18976e-06     2000
Angle:  1   109.47    8.76197e-05     1000
   1160000   54.88079      -460.85677      0             -385.38478     -2.3575716    
SHAKE stats (type/ave/delta/count) on step 1170000
Bond:   1   1         1.33182e-06     2000
Angle:  1   109.47    9.79934e-05     1000
   1170000   57.484328     -458.46334      0             -379.41097     -2.9993787    
SHAKE stats (type/ave/delta/count) on step 1180000
Bond:   1   1         1.74932e-06     2000
Angle:  1   109.47    0.000153283     1000
   1180000   56.630467     -461.66467      0             -383.78653      0.88102365   
SHAKE stats (type/ave/delta/count) on step 1190000
Bond:   1   1         1.11422e-06     2000
Angle:  1   109.47    9.41744e-05     1000
   1190000   56.372064     -456.2455       0             -378.72271     -1.646087     
SHAKE stats (type/ave/delta/count) on step 1200000
Bond:   1   1         1.02854e-06     2000
Angle:  1   109.47    9.27464e-05     1000
   1200000   53.935918     -459.20516      0             -385.03256     -1.4145377    
SHAKE stats (type/ave/delta/count) on step 1210000
Bond:   1   1         1.01505e-06     2000
Angle:  1   109.47    0.000103196     1000
   1210000   56.535595     -458.81081      0             -381.06314     -4.4064091    
SHAKE stats (type/ave/delta/count) on step 1220000
Bond:   1   1         1.41689e-06     2000
Angle:  1   109.47    0.000108817     1000
   1220000   56.052976     -460.90873      0             -383.82475     -5.63623      
SHAKE stats (type/ave/delta/count) on step 1230000
Bond:   1   1         1.72559e-06     2000
Angle:  1   109.47    0.000128918     1000
   1230000   55.841696     -462.01131      0             -385.21788     -4.8745064    
SHAKE stats (type/ave/delta/count) on step 1240000
Bond:   1   1         1.47068e-06     2000
Angle:  1   109.47    0.000116917     1000
   1240000   57.132243     -456.73992      0             -378.17174     -5.650524     
SHAKE stats (type/ave/delta/count) on step 1250000
Bond:   1   1         1.57292e-06     2000
Angle:  1   109.47    0.000107979     1000
   1250000   55.053942     -462.77804      0             -387.06793     -1.9671235    
SHAKE stats (type/ave/delta/count) on step 1260000
Bond:   1   1         1.20732e-06     2000
Angle:  1   109.47    9.9632e-05      1000
   1260000   56.587977     -463.66497      0             -385.84525     -6.3915142    
SHAKE stats (type/ave/delta/count) on step 1270000
Bond:   1   1         1.10485e-06     2000
Angle:  1   109.47    8.88312e-05     1000
   1270000   54.757665     -457.08635      0             -381.78368      0.63803659   
SHAKE stats (type/ave/delta/count) on step 1280000
Bond:   1   1         1.07202e-06     2000
Angle:  1   109.47    9.19363e-05     1000
   1280000   56.547741     -459.13366      0             -381.36928      3.2670291    
SHAKE stats (type/ave/delta/count) on step 1290000
Bond:   1   1         1.37667e-06     2000
Angle:  1   109.47    0.000107796     1000
   1290000   56.264697     -455.69238      0             -378.31724     -3.0754436    
SHAKE stats (type/ave/delta/count) on step 1300000
Bond:   1   1         1.14522e-06     2000
Angle:  1   109.47    9.25268e-05     1000
   1300000   56.804004     -455.99809      0             -377.88129     -2.0438976    
SHAKE stats (type/ave/delta/count) on step 1310000
Bond:   1   1         1.08622e-06     2000
Angle:  1   109.47    9.10291e-05     1000
   1310000   56.493055     -456.4885       0             -378.79933     -8.6745388    
SHAKE stats (type/ave/delta/count) on step 1320000
Bond:   1   1         1.4519e-06      2000
Angle:  1   109.47    0.000111617     1000
   1320000   55.420755     -460.07367      0             -383.85912     -6.2911402    
SHAKE stats (type/ave/delta/count) on step 1330000
Bond:   1   1         1.08285e-06     2000
Angle:  1   109.47    9.0373e-05      1000
   1330000   57.323304     -459.77316      0             -380.94222     -7.7349105    
SHAKE stats (type/ave/delta/count) on step 1340000
Bond:   1   1         1.24928e-06     2000
Angle:  1   109.47    8.77123e-05     1000
   1340000   56.295825     -460.95805      0             -383.54011      0.45305612   
SHAKE stats (type/ave/delta/count) on step 1350000
Bond:   1   1         1.35362e-06     2000
Angle:  1   109.47    0.000102173     1000
   1350000   55.331007     -459.09402      0             -383.00289     -12.940346    
SHAKE stats (type/ave/delta/count) on step 1360000
Bond:   1   1         1.42927e-06     2000
Angle:  1   109.47    0.000108596     1000
   1360000   56.2108       -459.96438      0             -382.66336     -3.6331449    
SHAKE stats (type/ave/delta/count) on step 1370000
Bond:   1   1         1.36304e-06     2000
Angle:  1   109.47    0.000116739     1000
   1370000   55.727826     -459.77407      0             -383.13724     -3.9292826    
SHAKE stats (type/ave/delta/count) on step 1380000
Bond:   1   1         1.23465e-06     2000
Angle:  1   109.47    9.57341e-05     1000
   1380000   54.910604     -458.2947       0             -382.78171     -7.7548583    
SHAKE stats (type/ave/delta/count) on step 1390000
Bond:   1   1         1.0664e-06      2000
Angle:  1   109.47    8.46781e-05     1000
   1390000   56.155095     -456.61121      0             -379.3868       0.90509288   
SHAKE stats (type/ave/delta/count) on step 1400000
Bond:   1   1         1.58968e-06     2000
Angle:  1   109.47    0.000104089     1000
   1400000   57.536718     -461.36987      0             -382.24545     -1.0858317    
SHAKE stats (type/ave/delta/count) on step 1410000
Bond:   1   1         1.10703e-06     2000
Angle:  1   109.47    8.76034e-05     1000
   1410000   56.148307     -460.75161      0             -383.53653     -2.1937122    
SHAKE stats (type/ave/delta/count) on step 1420000
Bond:   1   1         1.77433e-06     2000
Angle:  1   109.47    9.51248e-05     1000
   1420000   54.366514     -457.87186      0             -383.1071      -5.5547702    
SHAKE stats (type/ave/delta/count) on step 1430000
Bond:   1   1         1.31295e-06     2000
Angle:  1   109.47    0.000104876     1000
   1430000   55.705348     -462.06383      0             -385.45791     -5.4187476    
SHAKE stats (type/ave/delta/count) on step 1440000
Bond:   1   1         1.22168e-06     2000
Angle:  1   109.47    9.76735e-05     1000
   1440000   56.103018     -458.86915      0             -381.71635     -3.561463     
SHAKE stats (type/ave/delta/count) on step 1450000
Bond:   1   1         1.06288e-06     2000
Angle:  1   109.47    9.05222e-05     1000
   1450000   56.569856     -455.50556      0             -377.71076     -3.7369072    
SHAKE stats (type/ave/delta/count) on step 1460000
Bond:   1   1         1.28507e-06     2000
Angle:  1   109.47    9.1454e-05      1000
   1460000   55.127563     -457.58483      0             -381.77348     -4.4557028    
SHAKE stats (type/ave/delta/count) on step 1470000
Bond:   1   1         1.44889e-06     2000
Angle:  1   109.47    0.000104506     1000
   1470000   54.789961     -457.08189      0             -381.73481     -5.0702817    
SHAKE stats (type/ave/delta/count) on step 1480000
Bond:   1   1         1.31373e-06     2000
Angle:  1   109.47    0.000101948     1000
   1480000   56.535317     -462.73166      0             -384.98436     -7.0433783    
SHAKE stats (type/ave/delta/count) on step 1490000
Bond:   1   1         1.11518e-06     2000
Angle:  1   109.47    9.50569e-05     1000
   1490000   56.331241     -459.51604      0             -382.04939     -5.8435696    
SHAKE stats (type/ave/delta/count) on step 1500000
Bond:   1   1         1.21887e-06     2000
Angle:  1   109.47    0.000107168     1000
   1500000   57.21529      -457.95952      0             -379.27713     -8.9498435    
SHAKE stats (type/ave/delta/count) on step 1510000
Bond:   1   1         1.34939e-06     2000
Angle:  1   109.47    0.000117311     1000
   1510000   56.28628      -459.98162      0             -382.5768      -1.3167093    
SHAKE stats (type/ave/delta/count) on step 1520000
Bond:   1   1         1.19206e-06     2000
Angle:  1   109.47    8.97793e-05     1000
   1520000   56.075746     -460.00286      0             -382.88756     -1.7568918    
SHAKE stats (type/ave/delta/count) on step 1530000
Bond:   1   1         1.28404e-06     2000
Angle:  1   109.47    9.44691e-05     1000
   1530000   56.695966     -459.25959      0             -381.29138     -3.5536807    
SHAKE stats (type/ave/delta/count) on step 1540000
Bond:   1   1         1.25525e-06     2000
Angle:  1   109.47    0.000119731     1000
   1540000   56.307446     -463.30596      0             -385.87204     -0.62853404   
SHAKE stats (type/ave/delta/count) on step 1550000
Bond:   1   1         1.16212e-06     2000
Angle:  1   109.47    9.63422e-05     1000
   1550000   56.58032      -458.09817      0             -380.28898      0.56471222   
SHAKE stats (type/ave/delta/count) on step 1560000
Bond:   1   1         1.13504e-06     2000
Angle:  1   109.47    9.61827e-05     1000
   1560000   56.513096     -457.79354      0             -380.07681     -3.6675456    
SHAKE stats (type/ave/delta/count) on step 1570000
Bond:   1   1         1.84441e-06     2000
Angle:  1   109.47    0.000144855     1000
   1570000   56.009335     -460.80958      0             -383.78561     -2.604877     
SHAKE stats (type/ave/delta/count) on step 1580000
Bond:   1   1         1.20735e-06     2000
Angle:  1   109.47    8.96178e-05     1000
   1580000   55.872896     -457.86828      0             -381.03195     -5.6682441    
SHAKE stats (type/ave/delta/count) on step 1590000
Bond:   1   1         1.40202e-06     2000
Angle:  1   109.47    9.66062e-05     1000
   1590000   56.964742     -457.1894       0             -378.85156     -5.3586572    
SHAKE stats (type/ave/delta/count) on step 1600000
Bond:   1   1         9.95379e-07     2000
Angle:  1   109.47    9.54966e-05     1000
   1600000   58.258854     -456.65642      0             -376.53892     -1.7647447    
SHAKE stats (type/ave/delta/count) on step 1610000
Bond:   1   1         1.27892e-06     2000
Angle:  1   109.47    8.60042e-05     1000
   1610000   56.457973     -459.82772      0             -382.18679      1.4148946    
SHAKE stats (type/ave/delta/count) on step 1620000
Bond:   1   1         1.27842e-06     2000
Angle:  1   109.47    8.99715e-05     1000
   1620000   55.140767     -455.04872      0             -379.21921      2.9376567    
SHAKE stats (type/ave/delta/count) on step 1630000
Bond:   1   1         1.19093e-06     2000
Angle:  1   109.47    8.81323e-05     1000
   1630000   55.376971     -459.91475      0             -383.76042     -4.7533477    
SHAKE stats (type/ave/delta/count) on step 1640000
Bond:   1   1         2.42369e-06     2000
Angle:  1   109.47    0.000170225     1000
   1640000   56.43861      -458.7255       0             -381.1112      -4.9471102    
SHAKE stats (type/ave/delta/count) on step 1650000
Bond:   1   1         1.13691e-06     2000
Angle:  1   109.47    9.2957e-05      1000
   1650000   57.662976     -458.90344      0             -379.60539     -2.3732729    
SHAKE stats (type/ave/delta/count) on step 1660000
Bond:   1   1         1.40139e-06     2000
Angle:  1   109.47    0.000112762     1000
   1660000   57.535265     -459.71163      0             -380.58921     -3.0525884    
SHAKE stats (type/ave/delta/count) on step 1670000
Bond:   1   1         1.34524e-06     2000
Angle:  1   109.47    0.000107134     1000
   1670000   55.368091     -456.19495      0             -380.05283     -4.7517014    
SHAKE stats (type/ave/delta/count) on step 1680000
Bond:   1   1         1.32167e-06     2000
Angle:  1   109.47    9.31314e-05     1000
   1680000   57.142201     -461.15578      0             -382.5739      -1.8758502    
SHAKE stats (type/ave/delta/count) on step 1690000
Bond:   1   1         1.52588e-06     2000
Angle:  1   109.47    0.000111417     1000
   1690000   55.915229     -461.88336      0             -384.98881     -3.8154125    
SHAKE stats (type/ave/delta/count) on step 1700000
Bond:   1   1         1.50437e-06     2000
Angle:  1   109.47    0.000101367     1000
   1700000   56.179412     -460.66088      0             -383.40302     -3.8429507    
SHAKE stats (type/ave/delta/count) on step 1710000
Bond:   1   1         1.29878e-06     2000
Angle:  1   109.47    9.08401e-05     1000
   1710000   56.17658      -459.08392      0             -381.82996     -6.9693166    
SHAKE stats (type/ave/delta/count) on step 1720000
Bond:   1   1         1.37693e-06     2000
Angle:  1   109.47    9.86373e-05     1000
   1720000   55.628403     -456.79772      0             -380.29762     -3.9605857    
SHAKE stats (type/ave/delta/count) on step 1730000
Bond:   1   1         1.28206e-06     2000
Angle:  1   109.47    0.00010837      1000
   1730000   58.305685     -456.92482      0             -376.74292     -2.0506259    
SHAKE stats (type/ave/delta/count) on step 1740000
Bond:   1   1         2.07866e-06     2000
Angle:  1   109.47    0.000158976     1000
   1740000   55.923926     -458.54305      0             -381.63654      0.94977814   
SHAKE stats (type/ave/delta/count) on step 1750000
Bond:   1   1         1.59665e-06     2000
Angle:  1   109.47    0.000126974     1000
   1750000   54.923575     -457.2298       0             -381.69897     -7.5493724    
SHAKE stats (type/ave/delta/count) on step 1760000
Bond:   1   1         1.0549e-06      2000
Angle:  1   109.47    9.58856e-05     1000
   1760000   55.565011     -460.16162      0             -383.74869     -5.4074354    
SHAKE stats (type/ave/delta/count) on step 1770000
Bond:   1   1         1.23043e-06     2000
Angle:  1   109.47    9.83318e-05     1000
   1770000   56.128718     -457.82679      0             -380.63865     -5.5555916    
SHAKE stats (type/ave/delta/count) on step 1780000
Bond:   1   1         1.45282e-06     2000
Angle:  1   109.47    8.67044e-05     1000
   1780000   56.05705      -458.75016      0             -381.66058     -2.7553445    
SHAKE stats (type/ave/delta/count) on step 1790000
Bond:   1   1         1.13231e-06     2000
Angle:  1   109.47    8.94745e-05     1000
   1790000   56.365293     -457.14033      0             -379.62685     -3.2225388    
SHAKE stats (type/ave/delta/count) on step 1800000
Bond:   1   1         1.60379e-06     2000
Angle:  1   109.47    0.000107907     1000
   1800000   57.945835     -460.94052      0             -381.25349      0.81811493   
SHAKE stats (type/ave/delta/count) on step 1810000
Bond:   1   1         1.21579e-06     2000
Angle:  1   109.47    9.11793e-05     1000
   1810000   58.541293     -459.04698      0             -378.54107      5.6549912    
SHAKE stats (type/ave/delta/count) on step 1820000
Bond:   1   1         1.15048e-06     2000
Angle:  1   109.47    0.000112117     1000
   1820000   55.556641     -457.68556      0             -381.28414     -0.34881234   
SHAKE stats (type/ave/delta/count) on step 1830000
Bond:   1   1         1.66545e-06     2000
Angle:  1   109.47    0.000159522     1000
   1830000   59.606905     -459.43269      0             -377.46135     -8.6696451    
SHAKE stats (type/ave/delta/count) on step 1840000
Bond:   1   1         1.0462e-06      2000
Angle:  1   109.47    9.37358e-05     1000
   1840000   56.11335      -462.21002      0             -385.04302     -7.7443595    
SHAKE stats (type/ave/delta/count) on step 1850000
Bond:   1   1         1.12376e-06     2000
Angle:  1   109.47    9.31906e-05     1000
   1850000   54.742087     -461.33027      0             -386.04902     -0.82279905   
SHAKE stats (type/ave/delta/count) on step 1860000
Bond:   1   1         1.12848e-06     2000
Angle:  1   109.47    9.57682e-05     1000
   1860000   54.243759     -461.58947      0             -386.99352     -5.8673887    
SHAKE stats (type/ave/delta/count) on step 1870000
Bond:   1   1         1.13403e-06     2000
Angle:  1   109.47    9.36807e-05     1000
   1870000   56.13179      -460.56086      0             -383.36849     -7.3991251    
SHAKE stats (type/ave/delta/count) on step 1880000
Bond:   1   1         1.43764e-06     2000
Angle:  1   109.47    0.000119379     1000
   1880000   56.489048     -461.36596      0             -383.6823      -4.9965246    
SHAKE stats (type/ave/delta/count) on step 1890000
Bond:   1   1         1.3319e-06      2000
Angle:  1   109.47    0.00010531      1000
   1890000   58.004685     -456.35106      0             -376.5831      -5.4597348    
SHAKE stats (type/ave/delta/count) on step 1900000
Bond:   1   1         1.16193e-06     2000
Angle:  1   109.47    9.74067e-05     1000
   1900000   56.855427     -457.69925      0             -379.51174      0.78626714   
SHAKE stats (type/ave/delta/count) on step 1910000
Bond:   1   1         1.20542e-06     2000
Angle:  1   109.47    0.000111041     1000
   1910000   56.591242     -461.09034      0             -383.26614     -4.098834     
SHAKE stats (type/ave/delta/count) on step 1920000
Bond:   1   1         1.08179e-06     2000
Angle:  1   109.47    9.22815e-05     1000
   1920000   57.428492     -464.47015      0             -385.49456     -6.6747502    
SHAKE stats (type/ave/delta/count) on step 1930000
Bond:   1   1         1.56761e-06     2000
Angle:  1   109.47    0.000101909     1000
   1930000   55.894309     -457.33214      0             -380.46636     -6.2908604    
SHAKE stats (type/ave/delta/count) on step 1940000
Bond:   1   1         1.19961e-06     2000
Angle:  1   109.47    9.48821e-05     1000
   1940000   56.675853     -457.42058      0             -379.48002     -2.7665761    
SHAKE stats (type/ave/delta/count) on step 1950000
Bond:   1   1         1.67146e-06     2000
Angle:  1   109.47    0.00010571      1000
   1950000   57.472079     -463.48076      0             -384.44523     -5.2369257    
SHAKE stats (type/ave/delta/count) on step 1960000
Bond:   1   1         1.14071e-06     2000
Angle:  1   109.47    9.79746e-05     1000
   1960000   56.865129     -461.13461      0             -382.93376     -4.9606214    
SHAKE stats (type/ave/delta/count) on step 1970000
Bond:   1   1         1.21616e-06     2000
Angle:  1   109.47    0.000103424     1000
   1970000   55.759559     -461.54358      0             -384.86311     -0.07183294   
SHAKE stats (type/ave/delta/count) on step 1980000
Bond:   1   1         1.10306e-06     2000
Angle:  1   109.47    9.54052e-05     1000
   1980000   55.333413     -456.81369      0             -380.71925     -9.127747     
SHAKE stats (type/ave/delta/count) on step 1990000
Bond:   1   1         1.13495e-06     2000
Angle:  1   109.47    9.39581e-05     1000
   1990000   55.100491     -457.32988      0             -381.55576     -5.8153762    
SHAKE stats (type/ave/delta/count) on step 2000000
Bond:   1   1         1.25514e-06     2000
Angle:  1   109.47    9.61426e-05     1000
   2000000   56.456777     -458.54494      0             -380.90566     -2.5262641    
SHAKE stats (type/ave/delta/count) on step 2010000
Bond:   1   1         1.12704e-06     2000
Angle:  1   109.47    9.41383e-05     1000
   2010000   56.479021     -458.93204      0             -381.26217     -4.9362029    
SHAKE stats (type/ave/delta/count) on step 2020000
Bond:   1   1         1.24783e-06     2000
Angle:  1   109.47    0.000100689     1000
   2020000   56.984617     -456.35976      0             -377.99459      0.41319746   
SHAKE stats (type/ave/delta/count) on step 2030000
Bond:   1   1         1.36761e-06     2000
Angle:  1   109.47    0.000106217     1000
   2030000   56.522429     -459.87962      0             -382.15005     -9.7006374    
SHAKE stats (type/ave/delta/count) on step 2040000
Bond:   1   1         1.1644e-06      2000
Angle:  1   109.47    9.3359e-05      1000
   2040000   56.554508     -454.98691      0             -377.21322     -5.0487085    
SHAKE stats (type/ave/delta/count) on step 2050000
Bond:   1   1         1.37474e-06     2000
Angle:  1   109.47    0.000108287     1000
   2050000   56.179309     -458.038        0             -380.78029     -1.8879157    
SHAKE stats (type/ave/delta/count) on step 2060000
Bond:   1   1         1.21014e-06     2000
Angle:  1   109.47    0.000100491     1000
   2060000   56.395242     -457.74061      0             -380.18594     -1.3806637    
SHAKE stats (type/ave/delta/count) on step 2070000
Bond:   1   1         1.11275e-06     2000
Angle:  1   109.47    8.9486e-05      1000
   2070000   57.267306     -455.39201      0             -376.63809     -5.7753278    
SHAKE stats (type/ave/delta/count) on step 2080000
Bond:   1   1         1.56064e-06     2000
Angle:  1   109.47    0.00013374      1000
   2080000   59.180497     -456.97998      0             -375.59504     -9.2984778    
SHAKE stats (type/ave/delta/count) on step 2090000
Bond:   1   1         1.52991e-06     2000
Angle:  1   109.47    0.000137642     1000
   2090000   56.563807     -459.88306      0             -382.09659     -6.6801287    
SHAKE stats (type/ave/delta/count) on step 2100000
Bond:   1   1         1.71463e-06     2000
Angle:  1   109.47    9.95633e-05     1000
   2100000   56.399647     -460.2667       0             -382.70598     -6.2318557    
SHAKE stats (type/ave/delta/count) on step 2110000
Bond:   1   1         1.94599e-06     2000
Angle:  1   109.47    0.000139983     1000
   2110000   55.93108      -460.63953      0             -383.72319     -3.5439494    
SHAKE stats (type/ave/delta/count) on step 2120000
Bond:   1   1         1.09157e-06     2000
Angle:  1   109.47    9.02172e-05     1000
   2120000   56.776101     -459.90747      0             -381.82905     -6.9833808    
SHAKE stats (type/ave/delta/count) on step 2130000
Bond:   1   1         1.28967e-06     2000
Angle:  1   109.47    0.000104302     1000
   2130000   55.04756      -458.72452      0             -383.02319     -6.8677602    
SHAKE stats (type/ave/delta/count) on step 2140000
Bond:   1   1         1.84408e-06     2000
Angle:  1   109.47    0.000132894     1000
   2140000   57.192277     -455.41445      0             -376.76371     -7.6770853    
SHAKE stats (type/ave/delta/count) on step 2150000
Bond:   1   1         1.47125e-06     2000
Angle:  1   109.47    0.000116679     1000
   2150000   57.101338     -456.61662      0             -378.09094     -3.3080142    
SHAKE stats (type/ave/delta/count) on step 2160000
Bond:   1   1         1.33733e-06     2000
Angle:  1   109.47    9.2438e-05      1000
   2160000   55.096375     -456.38174      0             -380.61328     -9.2086985    
SHAKE stats (type/ave/delta/count) on step 2170000
Bond:   1   1         1.65742e-06     2000
Angle:  1   109.47    0.000115109     1000
   2170000   56.204231     -458.73267      0             -381.44069      0.39476679   
SHAKE stats (type/ave/delta/count) on step 2180000
Bond:   1   1         1.13784e-06     2000
Angle:  1   109.47    8.95795e-05     1000
   2180000   56.999672     -458.71121      0             -380.32534      2.3032286    
SHAKE stats (type/ave/delta/count) on step 2190000
Bond:   1   1         1.74452e-06     2000
Angle:  1   109.47    0.000140737     1000
   2190000   56.427377     -458.58119      0             -380.98234      1.5541934    
SHAKE stats (type/ave/delta/count) on step 2200000
Bond:   1   1         1.03381e-06     2000
Angle:  1   109.47    8.35018e-05     1000
   2200000   58.251453     -459.65814      0             -379.55082     -5.3195733    
SHAKE stats (type/ave/delta/count) on step 2210000
Bond:   1   1         1.71272e-06     2000
Angle:  1   109.47    0.000153258     1000
   2210000   56.197754     -458.7213       0             -381.43823     -7.6687288    
SHAKE stats (type/ave/delta/count) on step 2220000
Bond:   1   1         1.06018e-06     2000
Angle:  1   109.47    0.000105736     1000
   2220000   56.467708     -459.31719      0             -381.66287     -4.8760237    
SHAKE stats (type/ave/delta/count) on step 2230000
Bond:   1   1         1.24428e-06     2000
Angle:  1   109.47    0.000106484     1000
   2230000   56.169132     -458.39538      0             -381.15166     -8.2212222    
SHAKE stats (type/ave/delta/count) on step 2240000
Bond:   1   1         1.35883e-06     2000
Angle:  1   109.47    0.000106078     1000
   2240000   56.528097     -454.67575      0             -376.93839     -9.3669263    
SHAKE stats (type/ave/delta/count) on step 2250000
Bond:   1   1         1.10709e-06     2000
Angle:  1   109.47    9.07229e-05     1000
   2250000   55.837929     -456.80023      0             -380.01198     -6.1223431    
SHAKE stats (type/ave/delta/count) on step 2260000
Bond:   1   1         1.13327e-06     2000
Angle:  1   109.47    8.7858e-05      1000
   2260000   56.280974     -458.56804      0             -381.17052     -2.5486826    
SHAKE stats (type/ave/delta/count) on step 2270000
Bond:   1   1         1.02748e-06     2000
Angle:  1   109.47    9.25853e-05     1000
   2270000   55.379458     -456.81777      0             -380.66001     -6.0969823    
SHAKE stats (type/ave/delta/count) on step 2280000
Bond:   1   1         1.11328e-06     2000
Angle:  1   109.47    0.000102437     1000
   2280000   56.331879     -456.05046      0             -378.58293     -6.8144813    
SHAKE stats (type/ave/delta/count) on step 2290000
Bond:   1   1         1.28791e-06     2000
Angle:  1   109.47    9.55436e-05     1000
   2290000   55.450052     -458.36656      0             -382.11172     -3.9473986    
SHAKE stats (type/ave/delta/count) on step 2300000
Bond:   1   1         1.2453e-06      2000
Angle:  1   109.47    0.000102374     1000
   2300000   55.271893     -458.79165      0             -382.78182     -4.6941957    
SHAKE stats (type/ave/delta/count) on step 2310000
Bond:   1   1         1.12472e-06     2000
Angle:  1   109.47    9.20308e-05     1000
   2310000   55.493918     -457.1741       0             -380.85893     -3.7926426    
SHAKE stats (type/ave/delta/count) on step 2320000
Bond:   1   1         1.08428e-06     2000
Angle:  1   109.47    8.3091e-05      1000
   2320000   58.096451     -459.34905      0             -379.45488      3.7538651    
SHAKE stats (type/ave/delta/count) on step 2330000
Bond:   1   1         1.50252e-06     2000
Angle:  1   109.47    9.66518e-05     1000
   2330000   55.726412     -459.17625      0             -382.54136     -0.1264369    
SHAKE stats (type/ave/delta/count) on step 2340000
Bond:   1   1         1.32113e-06     2000
Angle:  1   109.47    0.000119495     1000
   2340000   56.930912     -456.99432      0             -378.703       -4.5405529    
SHAKE stats (type/ave/delta/count) on step 2350000
Bond:   1   1         1.10832e-06     2000
Angle:  1   109.47    9.07959e-05     1000
   2350000   56.31534      -453.92021      0             -376.47543      0.8423542    
SHAKE stats (type/ave/delta/count) on step 2360000
Bond:   1   1         1.54413e-06     2000
Angle:  1   109.47    0.000148813     1000
   2360000   55.842804     -455.71822      0             -378.92327     -7.1116431    
SHAKE stats (type/ave/delta/count) on step 2370000
Bond:   1   1         1.38455e-06     2000
Angle:  1   109.47    0.000101579     1000
   2370000   57.13821      -462.35325      0             -383.77686      1.5979626    
SHAKE stats (type/ave/delta/count) on step 2380000
Bond:   1   1         1.26129e-06     2000
Angle:  1   109.47    9.23033e-05     1000
   2380000   55.349115     -457.67776      0             -381.56174     -7.1486881    
SHAKE stats (type/ave/delta/count) on step 2390000
Bond:   1   1         1.0912e-06      2000
Angle:  1   109.47    8.69455e-05     1000
   2390000   59.4943       -461.47015      0             -379.65366     -5.1137082    
SHAKE stats (type/ave/delta/count) on step 2400000
Bond:   1   1         1.19379e-06     2000
Angle:  1   109.47    9.97554e-05     1000
   2400000   57.336584     -461.88726      0             -383.03806     -2.0045264    
SHAKE stats (type/ave/delta/count) on step 2410000
Bond:   1   1         1.48264e-06     2000
Angle:  1   109.47    8.48091e-05     1000
   2410000   56.821278     -460.20358      0             -382.06304     -8.5906642    
SHAKE stats (type/ave/delta/count) on step 2420000
Bond:   1   1         1.2214e-06      2000
Angle:  1   109.47    9.58004e-05     1000
   2420000   55.524887     -458.04783      0             -381.69008     -6.7151663    
SHAKE stats (type/ave/delta/count) on step 2430000
Bond:   1   1         1.02729e-06     2000
Angle:  1   109.47    9.71329e-05     1000
   2430000   56.241558     -456.80868      0             -379.46536     -4.8923737    
SHAKE stats (type/ave/delta/count) on step 2440000
Bond:   1   1         1.21122e-06     2000
Angle:  1   109.47    0.000133926     1000
   2440000   56.79179      -458.26023      0             -380.16023     -5.3847335    
SHAKE stats (type/ave/delta/count) on step 2450000
Bond:   1   1         1.25263e-06     2000
Angle:  1   109.47    0.00010824      1000
   2450000   56.312286     -462.68897      0             -385.24838     -4.5834165    
SHAKE stats (type/ave/delta/count) on step 2460000
Bond:   1   1         1.14125e-06     2000
Angle:  1   109.47    9.4832e-05      1000
   2460000   57.002789     -460.30096      0             -381.9108      -1.2789925    
SHAKE stats (type/ave/delta/count) on step 2470000
Bond:   1   1         1.48034e-06     2000
Angle:  1   109.47    0.000117559     1000
   2470000   57.284492     -460.01937      0             -381.24181     -2.5969945    
SHAKE stats (type/ave/delta/count) on step 2480000
Bond:   1   1         1.95283e-06     2000
Angle:  1   109.47    0.000146233     1000
   2480000   57.036377     -459.37393      0             -380.93758     -12.686765    
SHAKE stats (type/ave/delta/count) on step 2490000
Bond:   1   1         1.13357e-06     2000
Angle:  1   109.47    9.19849e-05     1000
   2490000   56.207078     -456.5337       0             -379.2378      -4.5185743    
SHAKE stats (type/ave/delta/count) on step 2500000
Bond:   1   1         1.16263e-06     2000
Angle:  1   109.47    8.72914e-05     1000
   2500000   54.820677     -458.42605      0             -383.03673     -9.8757563    
SHAKE stats (type/ave/delta/count) on step 2510000
Bond:   1   1         1.85395e-06     2000
Angle:  1   109.47    0.000166613     1000
   2510000   57.294237     -459.04421      0             -380.25326     -1.9748927    
SHAKE stats (type/ave/delta/count) on step 2520000
Bond:   1   1         1.22859e-06     2000
Angle:  1   109.47    0.000119337     1000
   2520000   54.315954     -456.67615      0             -381.98092     -4.5577481    
SHAKE stats (type/ave/delta/count) on step 2530000
Bond:   1   1         1.80983e-06     2000
Angle:  1   109.47    0.000115214     1000
   2530000   55.573902     -462.68797      0             -386.26281     -2.0097076    
SHAKE stats (type/ave/delta/count) on step 2540000
Bond:   1   1         1.31272e-06     2000
Angle:  1   109.47    9.83171e-05     1000
   2540000   53.810303     -455.22102      0             -381.22116      0.37318721   
SHAKE stats (type/ave/delta/count) on step 2550000
Bond:   1   1         1.69544e-06     2000
Angle:  1   109.47    0.000162043     1000
   2550000   55.07081      -454.1484       0             -378.4151      -1.3560839    
SHAKE stats (type/ave/delta/count) on step 2560000
Bond:   1   1         1.03332e-06     2000
Angle:  1   109.47    9.10944e-05     1000
   2560000   55.803144     -458.62927      0             -381.88886     -1.0281878    
SHAKE stats (type/ave/delta/count) on step 2570000
Bond:   1   1         1.36195e-06     2000
Angle:  1   109.47    0.000104856     1000
   2570000   56.939943     -452.83754      0             -374.5338      -2.1039453    
SHAKE stats (type/ave/delta/count) on step 2580000
Bond:   1   1         1.38571e-06     2000
Angle:  1   109.47    9.61962e-05     1000
   2580000   55.748983     -454.83053      0             -378.1646      -10.194067    
SHAKE stats (type/ave/delta/count) on step 2590000
Bond:   1   1         1.02697e-06     2000
Angle:  1   109.47    8.83546e-05     1000
   2590000   56.344508     -456.48907      0             -379.00418     -5.6222331    
SHAKE stats (type/ave/delta/count) on step 2600000
Bond:   1   1         1.03039e-06     2000
Angle:  1   109.47    8.88655e-05     1000
   2600000   57.944596     -457.42513      0             -377.7398      -2.5644328    
SHAKE stats (type/ave/delta/count) on step 2610000
Bond:   1   1         1.15455e-06     2000
Angle:  1   109.47    9.29926e-05     1000
   2610000   56.736        -457.20577      0             -379.1825      -4.5730949    
SHAKE stats (type/ave/delta/count) on step 2620000
Bond:   1   1         1.25783e-06     2000
Angle:  1   109.47    9.58513e-05     1000
   2620000   57.626656     -461.13242      0             -381.88432     -1.2275093    
SHAKE stats (type/ave/delta/count) on step 2630000
Bond:   1   1         1.52088e-06     2000
Angle:  1   109.47    9.14565e-05     1000
   2630000   57.663432     -457.94769      0             -378.64902     -0.36001277   
SHAKE stats (type/ave/delta/count) on step 2640000
Bond:   1   1         1.2689e-06      2000
Angle:  1   109.47    0.00011529      1000
   2640000   58.381356     -461.15897      0             -380.873        0.25213364   
SHAKE stats (type/ave/delta/count) on step 2650000
Bond:   1   1         1.7188e-06      2000
Angle:  1   109.47    0.000136576     1000
   2650000   56.723187     -459.84812      0             -381.84246      1.7195624    
SHAKE stats (type/ave/delta/count) on step 2660000
Bond:   1   1         1.20315e-06     2000
Angle:  1   109.47    9.07747e-05     1000
   2660000   56.49696      -459.27554      0             -381.58099     -0.28638854   
SHAKE stats (type/ave/delta/count) on step 2670000
Bond:   1   1         1.23015e-06     2000
Angle:  1   109.47    9.98872e-05     1000
   2670000   57.282515     -456.94542      0             -378.17058     -2.5454451    
SHAKE stats (type/ave/delta/count) on step 2680000
Bond:   1   1         1.24375e-06     2000
Angle:  1   109.47    0.000124974     1000
   2680000   57.256355     -461.06727      0             -382.32841     -3.7833862    
SHAKE stats (type/ave/delta/count) on step 2690000
Bond:   1   1         1.31829e-06     2000
Angle:  1   109.47    0.000101543     1000
   2690000   56.747752     -460.95975      0             -382.92031      0.017010428  
SHAKE stats (type/ave/delta/count) on step 2700000
Bond:   1   1         1.53415e-06     2000
Angle:  1   109.47    0.000120249     1000
   2700000   55.751013     -460.81205      0             -384.14333     -0.30269596   
SHAKE stats (type/ave/delta/count) on step 2710000
Bond:   1   1         1.40579e-06     2000
Angle:  1   109.47    9.41452e-05     1000
   2710000   53.655285     -457.77951      0             -383.99283     -6.5683301    
SHAKE stats (type/ave/delta/count) on step 2720000
Bond:   1   1         1.11757e-06     2000
Angle:  1   109.47    9.34312e-05     1000
   2720000   56.465838     -460.80997      0             -383.15822     -2.1322549    
SHAKE stats (type/ave/delta/count) on step 2730000
Bond:   1   1         1.7042e-06      2000
Angle:  1   109.47    0.000107846     1000
   2730000   56.814948     -460.14639      0             -382.01455      0.61976039   
SHAKE stats (type/ave/delta/count) on step 2740000
Bond:   1   1         1.03051e-06     2000
Angle:  1   109.47    9.32973e-05     1000
   2740000   55.517525     -455.82163      0             -379.474       -1.7673344    
SHAKE stats (type/ave/delta/count) on step 2750000
Bond:   1   1         1.17079e-06     2000
Angle:  1   109.47    9.32064e-05     1000
   2750000   57.691372     -456.601        0             -377.2639      -5.2789736    
SHAKE stats (type/ave/delta/count) on step 2760000
Bond:   1   1         1.21826e-06     2000
Angle:  1   109.47    8.8898e-05      1000
   2760000   57.056498     -458.8989       0             -380.43488     -6.2565835    
SHAKE stats (type/ave/delta/count) on step 2770000
Bond:   1   1         1.07389e-06     2000
Angle:  1   109.47    8.41471e-05     1000
   2770000   56.215141     -455.86772      0             -378.56073     -9.3933543    
SHAKE stats (type/ave/delta/count) on step 2780000
Bond:   1   1         1.01596e-06     2000
Angle:  1   109.47    8.54929e-05     1000
   2780000   55.03673      -458.83999      0             -383.15355      0.77587039   
SHAKE stats (type/ave/delta/count) on step 2790000
Bond:   1   1         2.24879e-06     2000
Angle:  1   109.47    0.000162276     1000
   2790000   56.115827     -459.13568      0             -381.96526     -3.4922719    
SHAKE stats (type/ave/delta/count) on step 2800000
Bond:   1   1         1.39451e-06     2000
Angle:  1   109.47    0.000110591     1000
   2800000   55.721024     -457.7127       0             -381.08522     -2.0110573    
SHAKE stats (type/ave/delta/count) on step 2810000
Bond:   1   1         1.11005e-06     2000
Angle:  1   109.47    8.47751e-05     1000
   2810000   56.46397      -460.81123      0             -383.16206     -0.50573354   
SHAKE stats (type/ave/delta/count) on step 2820000
Bond:   1   1         1.01753e-06     2000
Angle:  1   109.47    9.23534e-05     1000
   2820000   54.548741     -459.82666      0             -384.8113      -2.0132054    
SHAKE stats (type/ave/delta/count) on step 2830000
Bond:   1   1         1.26042e-06     2000
Angle:  1   109.47    0.000112569     1000
   2830000   57.364793     -456.77345      0             -377.88546     -7.7570231    
SHAKE stats (type/ave/delta/count) on step 2840000
Bond:   1   1         1.1849e-06      2000
Angle:  1   109.47    9.41884e-05     1000
   2840000   57.918535     -458.2651       0             -378.61561     -2.0817156    
SHAKE stats (type/ave/delta/count) on step 2850000
Bond:   1   1         1.60525e-06     2000
Angle:  1   109.47    9.40207e-05     1000
   2850000   54.963701     -462.38453      0             -386.79852     -1.4664154    
SHAKE stats (type/ave/delta/count) on step 2860000
Bond:   1   1         1.5267e-06      2000
Angle:  1   109.47    0.000131665     1000
   2860000   55.985188     -456.63767      0             -379.64691     -6.3342855    
SHAKE stats (type/ave/delta/count) on step 2870000
Bond:   1   1         1.06196e-06     2000
Angle:  1   109.47    8.74835e-05     1000
   2870000   57.918463     -455.44569      0             -375.7963      -1.7524817    
SHAKE stats (type/ave/delta/count) on step 2880000
Bond:   1   1         1.4956e-06      2000
Angle:  1   109.47    9.49418e-05     1000
   2880000   55.824577     -459.99069      0             -383.22081     -5.0054508    
SHAKE stats (type/ave/delta/count) on step 2890000
Bond:   1   1         1.39295e-06     2000
Angle:  1   109.47    0.000121789     1000
   2890000   55.412459     -462.10741      0             -385.90427     -1.8064226    
SHAKE stats (type/ave/delta/count) on step 2900000
Bond:   1   1         1.19383e-06     2000
Angle:  1   109.47    9.21835e-05     1000
   2900000   56.784733     -456.66698      0             -378.57669     -2.6175162    
SHAKE stats (type/ave/delta/count) on step 2910000
Bond:   1   1         1.48103e-06     2000
Angle:  1   109.47    0.000121057     1000
   2910000   55.851544     -458.4086       0             -381.60163      5.5761008    
SHAKE stats (type/ave/delta/count) on step 2920000
Bond:   1   1         1.35014e-06     2000
Angle:  1   109.47    9.65769e-05     1000
   2920000   56.361395     -457.48596      0             -379.97784     -5.9781047    
SHAKE stats (type/ave/delta/count) on step 2930000
Bond:   1   1         1.23984e-06     2000
Angle:  1   109.47    0.000113151     1000
   2930000   54.948749     -459.20977      0             -383.64432     -4.5800066    
SHAKE stats (type/ave/delta/count) on step 2940000
Bond:   1   1         1.02369e-06     2000
Angle:  1   109.47    8.95307e-05     1000
   2940000   55.738371     -456.18184      0             -379.5305      -3.9611227    
SHAKE stats (type/ave/delta/count) on step 2950000
Bond:   1   1         1.6714e-06      2000
Angle:  1   109.47    0.00013515      1000
   2950000   55.162382     -454.00777      0             -378.14854     -3.7204854    
SHAKE stats (type/ave/delta/count) on step 2960000
Bond:   1   1         1.57744e-06     2000
Angle:  1   109.47    0.00011168      1000
   2960000   57.262093     -457.38401      0             -378.63726     -0.76920554   
SHAKE stats (type/ave/delta/count) on step 2970000
Bond:   1   1         1.26218e-06     2000
Angle:  1   109.47    0.00011306      1000
   2970000   57.117972     -456.3099       0             -377.76135     -5.4943501    
SHAKE stats (type/ave/delta/count) on step 2980000
Bond:   1   1         1.14374e-06     2000
Angle:  1   109.47    0.000105669     1000
   2980000   53.973356     -459.64638      0             -385.42229     -6.0808173    
SHAKE stats (type/ave/delta/count) on step 2990000
Bond:   1   1         1.17157e-06     2000
Angle:  1   109.47    9.93682e-05     1000
   2990000   57.152158     -456.20851      0             -377.61293     -6.0284439    
SHAKE stats (type/ave/delta/count) on step 3000000
Bond:   1   1         1.78856e-06     2000
Angle:  1   109.47    0.000145686     1000
   3000000   55.785064     -456.81416      0             -380.09861      2.0887262    
SHAKE stats (type/ave/delta/count) on step 3010000
Bond:   1   1         1.52784e-06     2000
Angle:  1   109.47    0.000130777     1000
   3010000   57.100787     -460.29089      0             -381.76596     -7.3399413    
SHAKE stats (type/ave/delta/count) on step 3020000
Bond:   1   1         1.24737e-06     2000
Angle:  1   109.47    9.89089e-05     1000
   3020000   56.278012     -457.22431      0             -379.83086     -7.3316154    
SHAKE stats (type/ave/delta/count) on step 3030000
Bond:   1   1         1.20288e-06     2000
Angle:  1   109.47    0.000104121     1000
   3030000   53.68341      -460.92321      0             -387.09785     -0.55319946   
SHAKE stats (type/ave/delta/count) on step 3040000
Bond:   1   1         1.11703e-06     2000
Angle:  1   109.47    9.20975e-05     1000
   3040000   55.257721     -458.20002      0             -382.20967      2.1510005    
SHAKE stats (type/ave/delta/count) on step 3050000
Bond:   1   1         1.25825e-06     2000
Angle:  1   109.47    0.000105904     1000
   3050000   55.794402     -457.21186      0             -380.48347     -5.667197     
SHAKE stats (type/ave/delta/count) on step 3060000
Bond:   1   1         1.00955e-06     2000
Angle:  1   109.47    9.38256e-05     1000
   3060000   56.277121     -456.4833       0             -379.09108     -6.9965052    
SHAKE stats (type/ave/delta/count) on step 3070000
Bond:   1   1         9.84492e-07     2000
Angle:  1   109.47    8.7868e-05      1000
   3070000   54.242355     -459.30071      0             -384.7067      -2.0611655    
SHAKE stats (type/ave/delta/count) on step 3080000
Bond:   1   1         1.24974e-06     2000
Angle:  1   109.47    0.000150245     1000
   3080000   56.97028      -457.23984      0             -378.89438      0.59367477   
SHAKE stats (type/ave/delta/count) on step 3090000
Bond:   1   1         1.55064e-06     2000
Angle:  1   109.47    0.000143716     1000
   3090000   55.264926     -454.28489      0             -378.28464     -9.2988797    
SHAKE stats (type/ave/delta/count) on step 3100000
Bond:   1   1         1.34071e-06     2000
Angle:  1   109.47    0.000109126     1000
   3100000   54.707266     -455.37795      0             -380.14459     -0.74140975   
SHAKE stats (type/ave/delta/count) on step 3110000
Bond:   1   1         1.56489e-06     2000
Angle:  1   109.47    0.000105595     1000
   3110000   57.946671     -462.40811      0             -382.71993      6.1216168    
SHAKE stats (type/ave/delta/count) on step 3120000
Bond:   1   1         1.39909e-06     2000
Angle:  1   109.47    9.32126e-05     1000
   3120000   54.915992     -458.34335      0             -382.82295      0.68868179   
SHAKE stats (type/ave/delta/count) on step 3130000
Bond:   1   1         1.14172e-06     2000
Angle:  1   109.47    9.44668e-05     1000
   3130000   56.320411     -457.33936      0             -379.8876       0.60554999   
SHAKE stats (type/ave/delta/count) on step 3140000
Bond:   1   1         1.14954e-06     2000
Angle:  1   109.47    9.21227e-05     1000
   3140000   55.577571     -456.89939      0             -380.46918     -5.0903682    
SHAKE stats (type/ave/delta/count) on step 3150000
Bond:   1   1         1.30125e-06     2000
Angle:  1   109.47    0.000110295     1000
   3150000   55.232124     -458.38912      0             -382.43397     -5.5418358    
SHAKE stats (type/ave/delta/count) on step 3160000
Bond:   1   1         1.72461e-06     2000
Angle:  1   109.47    0.000111085     1000
   3160000   55.052055     -457.83355      0             -382.12604     -3.76455      
SHAKE stats (type/ave/delta/count) on step 3170000
Bond:   1   1         1.27398e-06     2000
Angle:  1   109.47    9.55308e-05     1000
   3170000   54.944362     -457.86648      0             -382.30707     -2.0229482    
SHAKE stats (type/ave/delta/count) on step 3180000
Bond:   1   1         1.01903e-06     2000
Angle:  1   109.47    9.26734e-05     1000
   3180000   55.232817     -459.29231      0             -383.33622     -1.6603539    
SHAKE stats (type/ave/delta/count) on step 3190000
Bond:   1   1         1.20985e-06     2000
Angle:  1   109.47    8.18659e-05     1000
   3190000   57.112646     -457.78975      0             -379.24851     -6.8952215    
SHAKE stats (type/ave/delta/count) on step 3200000
Bond:   1   1         1.4229e-06      2000
Angle:  1   109.47    0.000120844     1000
   3200000   55.321418     -458.06519      0             -381.98725     -8.0268333    
SHAKE stats (type/ave/delta/count) on step 3210000
Bond:   1   1         1.23738e-06     2000
Angle:  1   109.47    9.93746e-05     1000
   3210000   57.252868     -457.35854      0             -378.62447     -1.1548413    
SHAKE stats (type/ave/delta/count) on step 3220000
Bond:   1   1         1.1294e-06      2000
Angle:  1   109.47    0.000105689     1000
   3220000   57.616315     -463.02678      0             -383.7929      -7.135974     
SHAKE stats (type/ave/delta/count) on step 3230000
Bond:   1   1         1.11707e-06     2000
Angle:  1   109.47    9.3297e-05      1000
   3230000   57.572897     -459.09385      0             -379.91968     -4.0172739    
SHAKE stats (type/ave/delta/count) on step 3240000
Bond:   1   1         1.38743e-06     2000
Angle:  1   109.47    0.000105105     1000
   3240000   55.193374     -462.04609      0             -386.14424     -7.0895825    
SHAKE stats (type/ave/delta/count) on step 3250000
Bond:   1   1         2.0533e-06      2000
Angle:  1   109.47    0.000132747     1000
   3250000   57.702138     -454.64122      0             -375.28931     -2.1650312    
SHAKE stats (type/ave/delta/count) on step 3260000
Bond:   1   1         1.10173e-06     2000
Angle:  1   109.47    8.25265e-05     1000
   3260000   56.37445      -458.96831      0             -381.44224     -6.7001746    
SHAKE stats (type/ave/delta/count) on step 3270000
Bond:   1   1         1.40799e-06     2000
Angle:  1   109.47    0.000105188     1000
   3270000   57.101942     -460.26768      0             -381.74116      5.3892876    
SHAKE stats (type/ave/delta/count) on step 3280000
Bond:   1   1         1.30972e-06     2000
Angle:  1   109.47    9.68305e-05     1000
   3280000   56.945859     -458.53812      0             -380.22625     -1.1169711    
SHAKE stats (type/ave/delta/count) on step 3290000
Bond:   1   1         1.13816e-06     2000
Angle:  1   109.47    9.41548e-05     1000
   3290000   56.840526     -456.18898      0             -378.02196     -4.8299881    
SHAKE stats (type/ave/delta/count) on step 3300000
Bond:   1   1         1.35695e-06     2000
Angle:  1   109.47    0.000103638     1000
   3300000   55.538306     -455.29794      0             -378.92173     -2.7616889    
SHAKE stats (type/ave/delta/count) on step 3310000
Bond:   1   1         1.29476e-06     2000
Angle:  1   109.47    0.000124028     1000
   3310000   57.19738      -458.38609      0             -379.72833     -1.0465873    
SHAKE stats (type/ave/delta/count) on step 3320000
Bond:   1   1         2.26935e-06     2000
Angle:  1   109.47    0.000162424     1000
   3320000   56.88176      -459.75184      0             -381.52811      1.9415098    
SHAKE stats (type/ave/delta/count) on step 3330000
Bond:   1   1         1.23531e-06     2000
Angle:  1   109.47    0.000115739     1000
   3330000   56.609242     -455.99778      0             -378.14882     -0.0089209788 
SHAKE stats (type/ave/delta/count) on step 3340000
Bond:   1   1         1.16846e-06     2000
Angle:  1   109.47    9.69475e-05     1000
   3340000   56.981163     -458.10868      0             -379.74826      0.08592904   
SHAKE stats (type/ave/delta/count) on step 3350000
Bond:   1   1         1.23898e-06     2000
Angle:  1   109.47    9.91063e-05     1000
   3350000   56.014651     -457.91406      0             -380.88278     -2.0074317    
SHAKE stats (type/ave/delta/count) on step 3360000
Bond:   1   1         1.18199e-06     2000
Angle:  1   109.47    9.9374e-05      1000
   3360000   56.662323     -458.64276      0             -380.72081      2.5321981    
SHAKE stats (type/ave/delta/count) on step 3370000
Bond:   1   1         1.15885e-06     2000
Angle:  1   109.47    8.38957e-05     1000
   3370000   57.117524     -459.55571      0             -381.00777     -5.4485571    
SHAKE stats (type/ave/delta/count) on step 3380000
Bond:   1   1         1.21927e-06     2000
Angle:  1   109.47    0.000116073     1000
   3380000   55.392759     -456.67011      0             -380.49406     -3.0034736    
SHAKE stats (type/ave/delta/count) on step 3390000
Bond:   1   1         1.19162e-06     2000
Angle:  1   109.47    0.000127492     1000
   3390000   56.751366     -458.42676      0             -380.38235      3.5201106    
SHAKE stats (type/ave/delta/count) on step 3400000
Bond:   1   1         1.06239e-06     2000
Angle:  1   109.47    9.0862e-05      1000
   3400000   56.026417     -456.48665      0             -379.43919     -6.563764     
SHAKE stats (type/ave/delta/count) on step 3410000
Bond:   1   1         1.08841e-06     2000
Angle:  1   109.47    8.97302e-05     1000
   3410000   54.454908     -455.69503      0             -380.80871     -2.0770133    
SHAKE stats (type/ave/delta/count) on step 3420000
Bond:   1   1         1.35552e-06     2000
Angle:  1   109.47    0.000113165     1000
   3420000   55.367825     -458.94228      0             -382.80052     -2.2466431    
SHAKE stats (type/ave/delta/count) on step 3430000
Bond:   1   1         1.33719e-06     2000
Angle:  1   109.47    0.000110909     1000
   3430000   56.807553     -457.74905      0             -379.62737     -10.654257    
SHAKE stats (type/ave/delta/count) on step 3440000
Bond:   1   1         2.11936e-06     2000
Angle:  1   109.47    0.000159969     1000
   3440000   57.176745     -459.15476      0             -380.52537      0.91106371   
SHAKE stats (type/ave/delta/count) on step 3450000
Bond:   1   1         1.4608e-06      2000
Angle:  1   109.47    0.00010384      1000
   3450000   54.5043       -453.91555      0             -378.9613      -3.4615062    
SHAKE stats (type/ave/delta/count) on step 3460000
Bond:   1   1         1.86097e-06     2000
Angle:  1   109.47    0.000147868     1000
   3460000   56.045593     -460.45696      0             -383.38313     -4.5467086    
SHAKE stats (type/ave/delta/count) on step 3470000
Bond:   1   1         1.06259e-06     2000
Angle:  1   109.47    8.89045e-05     1000
   3470000   56.528632     -462.9022       0             -385.1641      -8.7668585    
SHAKE stats (type/ave/delta/count) on step 3480000
Bond:   1   1         1.08555e-06     2000
Angle:  1   109.47    0.000101244     1000
   3480000   56.805779     -460.39263      0             -382.2734      -4.8738892    
SHAKE stats (type/ave/delta/count) on step 3490000
Bond:   1   1         1.07517e-06     2000
Angle:  1   109.47    0.000140208     1000
   3490000   55.469195     -459.09817      0             -382.817       -4.2180207    
SHAKE stats (type/ave/delta/count) on step 3500000
Bond:   1   1         1.6066e-06      2000
Angle:  1   109.47    0.000109216     1000
   3500000   56.149339     -461.90807      0             -384.69157     -5.3618926    
SHAKE stats (type/ave/delta/count) on step 3510000
Bond:   1   1         1.22439e-06     2000
Angle:  1   109.47    9.0506e-05      1000
   3510000   56.283246     -456.99339      0             -379.59274     -8.3403937    
SHAKE stats (type/ave/delta/count) on step 3520000
Bond:   1   1         1.15434e-06     2000
Angle:  1   109.47    8.59496e-05     1000
   3520000   56.539863     -460.54153      0             -382.78799     -2.2231364    
SHAKE stats (type/ave/delta/count) on step 3530000
Bond:   1   1         1.22238e-06     2000
Angle:  1   109.47    0.000105488     1000
   3530000   55.815392     -460.91741      0             -384.16016      5.1326451    
SHAKE stats (type/ave/delta/count) on step 3540000
Bond:   1   1         1.26298e-06     2000
Angle:  1   109.47    8.90795e-05     1000
   3540000   55.23067      -459.70775      0             -383.7546      -0.66840497   
SHAKE stats (type/ave/delta/count) on step 3550000
Bond:   1   1         1.03403e-06     2000
Angle:  1   109.47    9.79878e-05     1000
   3550000   56.817264     -456.29013      0             -378.15511     -7.6526147    
SHAKE stats (type/ave/delta/count) on step 3560000
Bond:   1   1         1.19371e-06     2000
Angle:  1   109.47    8.83745e-05     1000
   3560000   56.35575      -462.20392      0             -384.70357     -5.4075082    
SHAKE stats (type/ave/delta/count) on step 3570000
Bond:   1   1         1.76613e-06     2000
Angle:  1   109.47    0.000128049     1000
   3570000   56.424121     -457.93248      0             -380.3381      -3.6866397    
SHAKE stats (type/ave/delta/count) on step 3580000
Bond:   1   1         1.28038e-06     2000
Angle:  1   109.47    0.000111605     1000
   3580000   55.270284     -458.17638      0             -382.16876     -4.8387007    
SHAKE stats (type/ave/delta/count) on step 3590000
Bond:   1   1         1.04886e-06     2000
Angle:  1   109.47    0.000108893     1000
   3590000   56.381815     -459.40551      0             -381.86931     -3.4287296    
SHAKE stats (type/ave/delta/count) on step 3600000
Bond:   1   1         1.11513e-06     2000
Angle:  1   109.47    0.00010027      1000
   3600000   56.161945     -459.10431      0             -381.87048     -6.921371     
SHAKE stats (type/ave/delta/count) on step 3610000
Bond:   1   1         1.24708e-06     2000
Angle:  1   109.47    0.000110088     1000
   3610000   56.08819      -460.86228      0             -383.72987     -1.6445738    
SHAKE stats (type/ave/delta/count) on step 3620000
Bond:   1   1         1.30783e-06     2000
Angle:  1   109.47    9.10677e-05     1000
   3620000   56.528125     -459.9726       0             -382.2352      -4.0289391    
SHAKE stats (type/ave/delta/count) on step 3630000
Bond:   1   1         1.31388e-06     2000
Angle:  1   109.47    0.00010138      1000
   3630000   57.91681      -458.87618      0             -379.22906     -7.0344959    
SHAKE stats (type/ave/delta/count) on step 3640000
Bond:   1   1         1.59086e-06     2000
Angle:  1   109.47    0.00011474      1000
   3640000   54.510348     -456.89724      0             -381.93468     -10.69712     
SHAKE stats (type/ave/delta/count) on step 3650000
Bond:   1   1         1.05684e-06     2000
Angle:  1   109.47    0.000115536     1000
   3650000   55.822302     -460.45804      0             -383.69129     -7.5176752    
SHAKE stats (type/ave/delta/count) on step 3660000
Bond:   1   1         1.57324e-06     2000
Angle:  1   109.47    0.000123508     1000
   3660000   57.329802     -456.71096      0             -377.87109     -4.4287658    
SHAKE stats (type/ave/delta/count) on step 3670000
Bond:   1   1         1.45246e-06     2000
Angle:  1   109.47    0.000101076     1000
   3670000   57.134664     -457.61743      0             -379.04591     -7.5823275    
SHAKE stats (type/ave/delta/count) on step 3680000
Bond:   1   1         1.07412e-06     2000
Angle:  1   109.47    0.000106161     1000
   3680000   58.158669     -458.61331      0             -378.63358      0.53878403   
SHAKE stats (type/ave/delta/count) on step 3690000
Bond:   1   1         1.37697e-06     2000
Angle:  1   109.47    0.00010227      1000
   3690000   57.340642     -457.08248      0             -378.2277      -2.1242899    
SHAKE stats (type/ave/delta/count) on step 3700000
Bond:   1   1         1.26898e-06     2000
Angle:  1   109.47    9.31822e-05     1000
   3700000   57.567327     -462.9344       0             -383.76789      0.48010874   
SHAKE stats (type/ave/delta/count) on step 3710000
Bond:   1   1         1.38917e-06     2000
Angle:  1   109.47    0.000122379     1000
   3710000   57.429659     -458.37554      0             -379.39835     -2.3715432    
SHAKE stats (type/ave/delta/count) on step 3720000
Bond:   1   1         1.50944e-06     2000
Angle:  1   109.47    9.54813e-05     1000
   3720000   55.01798      -459.29828      0             -383.63762     -0.6049299    
SHAKE stats (type/ave/delta/count) on step 3730000
Bond:   1   1         1.82184e-06     2000
Angle:  1   109.47    0.000159827     1000
   3730000   54.690873     -458.09138      0             -382.88056     -2.9492586    
SHAKE stats (type/ave/delta/count) on step 3740000
Bond:   1   1         1.43457e-06     2000
Angle:  1   109.47    0.000102922     1000
   3740000   57.173556     -459.61361      0             -380.98861     -0.61653996   
SHAKE stats (type/ave/delta/count) on step 3750000
Bond:   1   1         1.09749e-06     2000
Angle:  1   109.47    9.63576e-05     1000
   3750000   57.565504     -457.54104      0             -378.37704     -9.6279101    
SHAKE stats (type/ave/delta/count) on step 3760000
Bond:   1   1         1.14856e-06     2000
Angle:  1   109.47    8.69199e-05     1000
   3760000   55.134269     -456.9771       0             -381.15652     -4.1614963    
SHAKE stats (type/ave/delta/count) on step 3770000
Bond:   1   1         1.40606e-06     2000
Angle:  1   109.47    0.000110899     1000
   3770000   54.767618     -461.7986       0             -386.48225     -2.1782078    
SHAKE stats (type/ave/delta/count) on step 3780000
Bond:   1   1         1.02257e-06     2000
Angle:  1   109.47    8.50166e-05     1000
   3780000   56.345847     -460.00841      0             -382.52167     -0.35588458   
SHAKE stats (type/ave/delta/count) on step 3790000
Bond:   1   1         1.03973e-06     2000
Angle:  1   109.47    9.80282e-05     1000
   3790000   56.828136     -452.84522      0             -374.69524     -9.0306765    
SHAKE stats (type/ave/delta/count) on step 3800000
Bond:   1   1         1.23302e-06     2000
Angle:  1   109.47    9.57605e-05     1000
   3800000   57.502948     -456.86423      0             -377.78625     -4.5150006    
SHAKE stats (type/ave/delta/count) on step 3810000
Bond:   1   1         1.43884e-06     2000
Angle:  1   109.47    0.000130081     1000
   3810000   57.493171     -458.36481      0             -379.30028     -1.4018989    
SHAKE stats (type/ave/delta/count) on step 3820000
Bond:   1   1         1.30937e-06     2000
Angle:  1   109.47    9.25127e-05     1000
   3820000   56.192015     -457.63306      0             -380.35787     -4.301127     
SHAKE stats (type/ave/delta/count) on step 3830000
Bond:   1   1         1.34678e-06     2000
Angle:  1   109.47    0.000113511     1000
   3830000   57.061871     -460.14894      0             -381.67753     -3.6905275    
SHAKE stats (type/ave/delta/count) on step 3840000
Bond:   1   1         1.60555e-06     2000
Angle:  1   109.47    0.000106134     1000
   3840000   55.297501     -462.44561      0             -386.40056     -4.6115871    
SHAKE stats (type/ave/delta/count) on step 3850000
Bond:   1   1         1.16963e-06     2000
Angle:  1   109.47    8.71543e-05     1000
   3850000   56.547418     -460.24159      0             -382.47766     -0.39415561   
SHAKE stats (type/ave/delta/count) on step 3860000
Bond:   1   1         1.69658e-06     2000
Angle:  1   109.47    0.000138508     1000
   3860000   55.740249     -462.42372      0             -385.76981      3.1334584    
SHAKE stats (type/ave/delta/count) on step 3870000
Bond:   1   1         1.27706e-06     2000
Angle:  1   109.47    0.000111493     1000
   3870000   54.630374     -461.69127      0             -386.56365     -4.9019715    
SHAKE stats (type/ave/delta/count) on step 3880000
Bond:   1   1         1.24441e-06     2000
Angle:  1   109.47    8.99476e-05     1000
   3880000   55.19488      -462.41534      0             -386.51141     -10.854771    
SHAKE stats (type/ave/delta/count) on step 3890000
Bond:   1   1         1.01745e-06     2000
Angle:  1   109.47    9.23207e-05     1000
   3890000   57.060551     -453.70946      0             -375.23986     -10.407572    
SHAKE stats (type/ave/delta/count) on step 3900000
Bond:   1   1         1.11289e-06     2000
Angle:  1   109.47    0.000112357     1000
   3900000   57.867151     -455.63563      0             -376.0568      -6.5614906    
SHAKE stats (type/ave/delta/count) on step 3910000
Bond:   1   1         2.05507e-06     2000
Angle:  1   109.47    0.000163432     1000
   3910000   56.183842     -458.12253      0             -380.85858     -2.6031567    
SHAKE stats (type/ave/delta/count) on step 3920000
Bond:   1   1         1.68677e-06     2000
Angle:  1   109.47    0.000116328     1000
   3920000   55.127768     -463.95023      0             -388.1386      -5.5460551    
SHAKE stats (type/ave/delta/count) on step 3930000
Bond:   1   1         1.08965e-06     2000
Angle:  1   109.47    8.96438e-05     1000
   3930000   57.033557     -460.90231      0             -382.46983     -3.3397983    
SHAKE stats (type/ave/delta/count) on step 3940000
Bond:   1   1         1.17874e-06     2000
Angle:  1   109.47    9.00953e-05     1000
   3940000   55.742949     -457.87756      0             -381.21993      2.2889283    
SHAKE stats (type/ave/delta/count) on step 3950000
Bond:   1   1         1.02628e-06     2000
Angle:  1   109.47    0.0001032       1000
   3950000   57.265232     -458.39312      0             -379.64205     -4.9991617    
SHAKE stats (type/ave/delta/count) on step 3960000
Bond:   1   1         1.26896e-06     2000
Angle:  1   109.47    9.31321e-05     1000
   3960000   57.885225     -457.62336      0             -378.01967     -4.9473876    
SHAKE stats (type/ave/delta/count) on step 3970000
Bond:   1   1         1.46186e-06     2000
Angle:  1   109.47    0.000110184     1000
   3970000   53.984288     -455.88112      0             -381.642       -5.5241766    
SHAKE stats (type/ave/delta/count) on step 3980000
Bond:   1   1         1.2569e-06      2000
Angle:  1   109.47    9.2474e-05      1000
   3980000   56.941139     -458.50479      0             -380.19941     -5.316074     
SHAKE stats (type/ave/delta/count) on step 3990000
Bond:   1   1         1.40163e-06     2000
Angle:  1   109.47    0.000114413     1000
   3990000   58.989004     -456.2261       0             -375.10449     -1.959292     
SHAKE stats (type/ave/delta/count) on step 4000000
Bond:   1   1         9.73494e-07     2000
Angle:  1   109.47    9.16865e-05     1000
   4000000   57.455684     -456.41613      0             -377.40315     -4.1500576    
SHAKE stats (type/ave/delta/count) on step 4010000
Bond:   1   1         1.22911e-06     2000
Angle:  1   109.47    9.42154e-05     1000
   4010000   55.46283      -461.43369      0             -385.16128     -3.2775265    
SHAKE stats (type/ave/delta/count) on step 4020000
Bond:   1   1         1.12455e-06     2000
Angle:  1   109.47    8.87069e-05     1000
   4020000   56.981398     -462.10529      0             -383.74455     -9.752018     
SHAKE stats (type/ave/delta/count) on step 4030000
Bond:   1   1         1.06706e-06     2000
Angle:  1   109.47    8.60474e-05     1000
   4030000   56.053834     -456.99039      0             -379.90523     -0.99694769   
SHAKE stats (type/ave/delta/count) on step 4040000
Bond:   1   1         1.30181e-06     2000
Angle:  1   109.47    0.000147859     1000
   4040000   56.719145     -459.07775      0             -381.07765      5.1797046    
SHAKE stats (type/ave/delta/count) on step 4050000
Bond:   1   1         1.64173e-06     2000
Angle:  1   109.47    0.000128262     1000
   4050000   56.062946     -457.30495      0             -380.20726     -9.8190904    
SHAKE stats (type/ave/delta/count) on step 4060000
Bond:   1   1         1.13926e-06     2000
Angle:  1   109.47    0.000115559     1000
   4060000   57.798877     -457.3806       0             -377.89566     -5.3949049    
SHAKE stats (type/ave/delta/count) on step 4070000
Bond:   1   1         1.13216e-06     2000
Angle:  1   109.47    9.67382e-05     1000
   4070000   56.642362     -461.16014      0             -383.26564     -4.1468716    
SHAKE stats (type/ave/delta/count) on step 4080000
Bond:   1   1         1.05024e-06     2000
Angle:  1   109.47    9.15372e-05     1000
   4080000   54.486622     -452.57395      0             -377.64402      1.8558654    
SHAKE stats (type/ave/delta/count) on step 4090000
Bond:   1   1         1.25614e-06     2000
Angle:  1   109.47    0.000100177     1000
   4090000   58.445721     -456.47705      0             -376.10257      1.582472     
SHAKE stats (type/ave/delta/count) on step 4100000
Bond:   1   1         1.06457e-06     2000
Angle:  1   109.47    9.26529e-05     1000
   4100000   56.269656     -458.75157      0             -381.36961     -0.98441384   
SHAKE stats (type/ave/delta/count) on step 4110000
Bond:   1   1         1.25335e-06     2000
Angle:  1   109.47    0.000111235     1000
   4110000   57.530019     -458.0515       0             -378.9363      -3.6555025    
SHAKE stats (type/ave/delta/count) on step 4120000
Bond:   1   1         1.26199e-06     2000
Angle:  1   109.47    0.000110584     1000
   4120000   56.167059     -459.25187      0             -382.011        6.125051     
SHAKE stats (type/ave/delta/count) on step 4130000
Bond:   1   1         1.17279e-06     2000
Angle:  1   109.47    8.84163e-05     1000
   4130000   55.472828     -461.44906      0             -385.1629      -7.3578685    
SHAKE stats (type/ave/delta/count) on step 4140000
Bond:   1   1         1.48833e-06     2000
Angle:  1   109.47    9.5816e-05      1000
   4140000   56.071083     -460.2533       0             -383.14442      4.1484579    
SHAKE stats (type/ave/delta/count) on step 4150000
Bond:   1   1         1.16958e-06     2000
Angle:  1   109.47    8.84444e-05     1000
   4150000   56.288644     -460.45191      0             -383.04384     -5.6741099    
SHAKE stats (type/ave/delta/count) on step 4160000
Bond:   1   1         1.07314e-06     2000
Angle:  1   109.47    0.000104062     1000
   4160000   55.904644     -459.94227      0             -383.06228     -2.6712651    
SHAKE stats (type/ave/delta/count) on step 4170000
Bond:   1   1         1.27127e-06     2000
Angle:  1   109.47    9.03568e-05     1000
   4170000   55.862513     -456.96585      0             -380.14379     -0.92558282   
SHAKE stats (type/ave/delta/count) on step 4180000
Bond:   1   1         1.0642e-06      2000
Angle:  1   109.47    8.95355e-05     1000
   4180000   55.899569     -457.0854       0             -380.21238     -3.1264206    
SHAKE stats (type/ave/delta/count) on step 4190000
Bond:   1   1         1.06405e-06     2000
Angle:  1   109.47    8.64908e-05     1000
   4190000   56.06784      -463.09751      0             -385.99309     -6.9724744    
SHAKE stats (type/ave/delta/count) on step 4200000
Bond:   1   1         1.73845e-06     2000
Angle:  1   109.47    0.000146902     1000
   4200000   55.587843     -462.25987      0             -385.81554      0.022955003  
SHAKE stats (type/ave/delta/count) on step 4210000
Bond:   1   1         1.11276e-06     2000
Angle:  1   109.47    0.000107434     1000
   4210000   55.656319     -457.40498      0             -380.86649     -7.8618133    
SHAKE stats (type/ave/delta/count) on step 4220000
Bond:   1   1         1.26408e-06     2000
Angle:  1   109.47    9.70339e-05     1000
   4220000   55.996877     -460.09267      0             -383.08584     -8.2079879    
SHAKE stats (type/ave/delta/count) on step 4230000
Bond:   1   1         1.02342e-06     2000
Angle:  1   109.47    0.000100502     1000
   4230000   54.884199     -457.54139      0             -382.06472     -5.5545847    
SHAKE stats (type/ave/delta/count) on step 4240000
Bond:   1   1         1.31521e-06     2000
Angle:  1   109.47    9.26893e-05     1000
   4240000   56.690176     -455.99711      0             -378.03685     -1.6580122    
SHAKE stats (type/ave/delta/count) on step 4250000
Bond:   1   1         9.84793e-07     2000
Angle:  1   109.47    0.000100128     1000
   4250000   58.685531     -454.56867      0             -373.8644      -3.1481223    
SHAKE stats (type/ave/delta/count) on step 4260000
Bond:   1   1         1.36249e-06     2000
Angle:  1   109.47    0.000111023     1000
   4260000   54.233517     -459.10049      0             -384.51863     -4.8529626    
SHAKE stats (type/ave/delta/count) on step 4270000
Bond:   1   1         1.35803e-06     2000
Angle:  1   109.47    0.00012896      1000
   4270000   57.026014     -460.98935      0             -382.56725     -2.5449004    
SHAKE stats (type/ave/delta/count) on step 4280000
Bond:   1   1         1.32955e-06     2000
Angle:  1   109.47    0.000100826     1000
   4280000   54.972854     -458.53086      0             -382.93226     -8.8698983    
SHAKE stats (type/ave/delta/count) on step 4290000
Bond:   1   1         1.16396e-06     2000
Angle:  1   109.47    8.57421e-05     1000
   4290000   54.84811      -457.28628      0             -381.85923     -6.4991828    
SHAKE stats (type/ave/delta/count) on step 4300000
Bond:   1   1         1.19746e-06     2000
Angle:  1   109.47    0.000108912     1000
   4300000   56.511556     -462.47556      0             -384.76095     -7.1087479    
SHAKE stats (type/ave/delta/count) on step 4310000
Bond:   1   1         1.27792e-06     2000
Angle:  1   109.47    0.000104785     1000
   4310000   56.550918     -460.20808      0             -382.43933     -6.3988395    
SHAKE stats (type/ave/delta/count) on step 4320000
Bond:   1   1         1.05452e-06     2000
Angle:  1   109.47    9.98576e-05     1000
   4320000   55.946688     -459.50799      0             -382.57018     -1.3247818    
SHAKE stats (type/ave/delta/count) on step 4330000
Bond:   1   1         1.42669e-06     2000
Angle:  1   109.47    0.000113295     1000
   4330000   57.287378     -456.71492      0             -377.93339      0.95454878   
SHAKE stats (type/ave/delta/count) on step 4340000
Bond:   1   1         1.27545e-06     2000
Angle:  1   109.47    9.452e-05       1000
   4340000   55.460121     -457.3514       0             -381.08272     -0.64079044   
SHAKE stats (type/ave/delta/count) on step 4350000
Bond:   1   1         1.05155e-06     2000
Angle:  1   109.47    8.69549e-05     1000
   4350000   55.202046     -458.35991      0             -382.44612     -3.3966252    
SHAKE stats (type/ave/delta/count) on step 4360000
Bond:   1   1         1.19246e-06     2000
Angle:  1   109.47    9.0267e-05      1000
   4360000   54.462894     -454.51158      0             -379.61428     -2.810238     
SHAKE stats (type/ave/delta/count) on step 4370000
Bond:   1   1         1.08416e-06     2000
Angle:  1   109.47    8.8218e-05      1000
   4370000   56.102882     -460.33693      0             -383.18432     -4.6779311    
SHAKE stats (type/ave/delta/count) on step 4380000
Bond:   1   1         1.34534e-06     2000
Angle:  1   109.47    0.000129681     1000
   4380000   57.227448     -457.36192      0             -378.66281     -2.9438274    
SHAKE stats (type/ave/delta/count) on step 4390000
Bond:   1   1         1.35838e-06     2000
Angle:  1   109.47    0.000118126     1000
   4390000   56.71101      -464.28541      0             -386.2965      -5.399457     
SHAKE stats (type/ave/delta/count) on step 4400000
Bond:   1   1         1.04296e-06     2000
Angle:  1   109.47    8.80377e-05     1000
   4400000   55.910152     -455.6458       0             -378.75823     -5.2420996    
SHAKE stats (type/ave/delta/count) on step 4410000
Bond:   1   1         1.13066e-06     2000
Angle:  1   109.47    9.66813e-05     1000
   4410000   57.764698     -458.50399      0             -379.06605     -5.1434082    
SHAKE stats (type/ave/delta/count) on step 4420000
Bond:   1   1         1.1036e-06      2000
Angle:  1   109.47    0.000104236     1000
   4420000   56.196087     -457.21815      0             -379.93737     -3.8237979    
SHAKE stats (type/ave/delta/count) on step 4430000
Bond:   1   1         1.12088e-06     2000
Angle:  1   109.47    8.97113e-05     1000
   4430000   56.353375     -456.92477      0             -379.42768     -6.7605199    
SHAKE stats (type/ave/delta/count) on step 4440000
Bond:   1   1         1.47298e-06     2000
Angle:  1   109.47    0.00010916      1000
   4440000   56.335353     -459.39311      0             -381.92081     -0.31971672   
SHAKE stats (type/ave/delta/count) on step 4450000
Bond:   1   1         1.97045e-06     2000
Angle:  1   109.47    0.000163458     1000
   4450000   55.876193     -457.26984      0             -380.42897     -4.8543639    
SHAKE stats (type/ave/delta/count) on step 4460000
Bond:   1   1         1.40204e-06     2000
Angle:  1   109.47    0.000107097     1000
   4460000   56.978329     -459.32017      0             -380.96365     -9.4555901    
SHAKE stats (type/ave/delta/count) on step 4470000
Bond:   1   1         1.07027e-06     2000
Angle:  1   109.47    9.35959e-05     1000
   4470000   55.563177     -460.80506      0             -384.39466     -0.57566593   
SHAKE stats (type/ave/delta/count) on step 4480000
Bond:   1   1         1.04069e-06     2000
Angle:  1   109.47    9.39274e-05     1000
   4480000   56.281134     -460.87867      0             -383.48093     -4.0995915    
SHAKE stats (type/ave/delta/count) on step 4490000
Bond:   1   1         1.33832e-06     2000
Angle:  1   109.47    9.24478e-05     1000
   4490000   55.235426     -462.23338      0             -386.27369     -5.5085512    
SHAKE stats (type/ave/delta/count) on step 4500000
Bond:   1   1         1.18127e-06     2000
Angle:  1   109.47    0.000102798     1000
   4500000   54.323531     -458.13025      0             -383.4246      -7.2454343    
SHAKE stats (type/ave/delta/count) on step 4510000
Bond:   1   1         1.15283e-06     2000
Angle:  1   109.47    0.000135897     1000
   4510000   56.601986     -458.71944      0             -380.88047     -5.9642834    
SHAKE stats (type/ave/delta/count) on step 4520000
Bond:   1   1         1.32305e-06     2000
Angle:  1   109.47    9.9808e-05      1000
   4520000   56.859217     -462.87541      0             -384.68269     -10.771581    
SHAKE stats (type/ave/delta/count) on step 4530000
Bond:   1   1         1.00985e-06     2000
Angle:  1   109.47    9.22471e-05     1000
   4530000   53.874843     -456.89367      0             -382.80506     -0.84693766   
SHAKE stats (type/ave/delta/count) on step 4540000
Bond:   1   1         1.2048e-06      2000
Angle:  1   109.47    9.43195e-05     1000
   4540000   55.639729     -459.06981      0             -382.55413     -4.505292     
SHAKE stats (type/ave/delta/count) on step 4550000
Bond:   1   1         1.43241e-06     2000
Angle:  1   109.47    0.000104308     1000
   4550000   55.90775      -463.01273      0             -386.12846     -1.3293646    
SHAKE stats (type/ave/delta/count) on step 4560000
Bond:   1   1         1.20237e-06     2000
Angle:  1   109.47    0.000111729     1000
   4560000   57.236586     -457.91534      0             -379.20366     -7.2817806    
SHAKE stats (type/ave/delta/count) on step 4570000
Bond:   1   1         1.24588e-06     2000
Angle:  1   109.47    8.75264e-05     1000
   4570000   56.679007     -456.97247      0             -379.02758     -2.2312436    
SHAKE stats (type/ave/delta/count) on step 4580000
Bond:   1   1         1.26918e-06     2000
Angle:  1   109.47    9.09633e-05     1000
   4580000   56.133531     -463.35513      0             -386.16038     -2.6076866    
SHAKE stats (type/ave/delta/count) on step 4590000
Bond:   1   1         1.10581e-06     2000
Angle:  1   109.47    9.52981e-05     1000
   4590000   56.079841     -460.43455      0             -383.31363     -12.725305    
SHAKE stats (type/ave/delta/count) on step 4600000
Bond:   1   1         1.2181e-06      2000
Angle:  1   109.47    9.64026e-05     1000
   4600000   56.234222     -455.02699      0             -377.69376      2.7109221    
SHAKE stats (type/ave/delta/count) on step 4610000
Bond:   1   1         1.02563e-06     2000
Angle:  1   109.47    9.36078e-05     1000
   4610000   56.291312     -458.79188      0             -381.38014     -2.6001908    
SHAKE stats (type/ave/delta/count) on step 4620000
Bond:   1   1         1.52318e-06     2000
Angle:  1   109.47    0.000126565     1000
   4620000   55.695301     -460.9894       0             -384.39729      0.47078664   
SHAKE stats (type/ave/delta/count) on step 4630000
Bond:   1   1         1.55558e-06     2000
Angle:  1   109.47    0.000103456     1000
   4630000   57.334418     -458.43638      0             -379.59017      4.6946365    
SHAKE stats (type/ave/delta/count) on step 4640000
Bond:   1   1         1.16535e-06     2000
Angle:  1   109.47    9.23402e-05     1000
   4640000   55.997407     -456.76559      0             -379.75803     -6.4915939    
SHAKE stats (type/ave/delta/count) on step 4650000
Bond:   1   1         1.43368e-06     2000
Angle:  1   109.47    0.000127615     1000
   4650000   58.431191     -455.54879      0             -375.19429     -7.1947262    
SHAKE stats (type/ave/delta/count) on step 4660000
Bond:   1   1         1.33176e-06     2000
Angle:  1   109.47    9.33199e-05     1000
   4660000   55.898744     -461.59693      0             -384.72505      6.3450545    
SHAKE stats (type/ave/delta/count) on step 4670000
Bond:   1   1         1.22485e-06     2000
Angle:  1   109.47    8.99558e-05     1000
   4670000   57.60052      -456.66126      0             -377.44911      1.3848098    
SHAKE stats (type/ave/delta/count) on step 4680000
Bond:   1   1         1.20742e-06     2000
Angle:  1   109.47    9.29335e-05     1000
   4680000   57.621732     -459.27059      0             -380.02926     -3.8465334    
SHAKE stats (type/ave/delta/count) on step 4690000
Bond:   1   1         2.74677e-06     2000
Angle:  1   109.47    0.000287803     1000
   4690000   57.313584     -455.40635      0             -376.58878     -9.0516682    
SHAKE stats (type/ave/delta/count) on step 4700000
Bond:   1   1         1.31133e-06     2000
Angle:  1   109.47    9.67376e-05     1000
   4700000   54.812609     -457.24945      0             -381.87122     -2.9262805    
SHAKE stats (type/ave/delta/count) on step 4710000
Bond:   1   1         1.28485e-06     2000
Angle:  1   109.47    8.95185e-05     1000
   4710000   55.864845     -455.21449      0             -378.38923     -1.8973298    
SHAKE stats (type/ave/delta/count) on step 4720000
Bond:   1   1         1.3547e-06      2000
Angle:  1   109.47    0.000110452     1000
   4720000   56.673747     -453.32429      0             -375.38663     -6.5803457    
SHAKE stats (type/ave/delta/count) on step 4730000
Bond:   1   1         1.24377e-06     2000
Angle:  1   109.47    9.37318e-05     1000
   4730000   57.445785     -464.76424      0             -385.76488     -3.2326027    
SHAKE stats (type/ave/delta/count) on step 4740000
Bond:   1   1         1.07623e-06     2000
Angle:  1   109.47    8.65129e-05     1000
   4740000   55.609516     -459.1813       0             -382.70717     -2.7840808    
SHAKE stats (type/ave/delta/count) on step 4750000
Bond:   1   1         1.19441e-06     2000
Angle:  1   109.47    9.42194e-05     1000
   4750000   55.797644     -459.8198       0             -383.08696     -0.79913579   
SHAKE stats (type/ave/delta/count) on step 4760000
Bond:   1   1         1.01716e-06     2000
Angle:  1   109.47    8.60631e-05     1000
   4760000   56.717828     -457.3721       0             -379.37381     -11.104305    
SHAKE stats (type/ave/delta/count) on step 4770000
Bond:   1   1         1.17501e-06     2000
Angle:  1   109.47    9.63749e-05     1000
   4770000   56.068364     -453.67519      0             -376.57005     -7.7990642    
SHAKE stats (type/ave/delta/count) on step 4780000
Bond:   1   1         1.2253e-06      2000
Angle:  1   109.47    0.000147673     1000
   4780000   55.021685     -457.78523      0             -382.11948     -7.160482     
SHAKE stats (type/ave/delta/count) on step 4790000
Bond:   1   1         1.01915e-06     2000
Angle:  1   109.47    9.05669e-05     1000
   4790000   55.231903     -457.91949      0             -381.96465     -0.048229365  
SHAKE stats (type/ave/delta/count) on step 4800000
Bond:   1   1         1.63425e-06     2000
Angle:  1   109.47    0.000112213     1000
   4800000   55.048255     -453.94593      0             -378.24364     -5.2868038    
SHAKE stats (type/ave/delta/count) on step 4810000
Bond:   1   1         1.83658e-06     2000
Angle:  1   109.47    0.000142676     1000
   4810000   56.508819     -459.83579      0             -382.12494     -4.6137853    
SHAKE stats (type/ave/delta/count) on step 4820000
Bond:   1   1         1.09893e-06     2000
Angle:  1   109.47    0.000104615     1000
   4820000   56.190559     -455.1686       0             -377.89542     -4.0263236    
SHAKE stats (type/ave/delta/count) on step 4830000
Bond:   1   1         1.15827e-06     2000
Angle:  1   109.47    9.46762e-05     1000
   4830000   55.406968     -459.95413      0             -383.75854     -0.143563     
SHAKE stats (type/ave/delta/count) on step 4840000
Bond:   1   1         1.21971e-06     2000
Angle:  1   109.47    8.58664e-05     1000
   4840000   55.987511     -459.40985      0             -382.4159      -4.6362979    
SHAKE stats (type/ave/delta/count) on step 4850000
Bond:   1   1         1.62775e-06     2000
Angle:  1   109.47    0.000102993     1000
   4850000   55.414183     -460.46189      0             -384.25638     -1.7542318    
SHAKE stats (type/ave/delta/count) on step 4860000
Bond:   1   1         1.5869e-06      2000
Angle:  1   109.47    0.000151519     1000
   4860000   56.489654     -454.78395      0             -377.09945     -4.6471183    
SHAKE stats (type/ave/delta/count) on step 4870000
Bond:   1   1         1.28593e-06     2000
Angle:  1   109.47    9.09026e-05     1000
   4870000   58.192187     -457.44201      0             -377.41619      0.50146141   
SHAKE stats (type/ave/delta/count) on step 4880000
Bond:   1   1         1.28597e-06     2000
Angle:  1   109.47    9.03193e-05     1000
   4880000   57.198229     -459.04224      0             -380.38331     -4.1152169    
SHAKE stats (type/ave/delta/count) on step 4890000
Bond:   1   1         9.99024e-07     2000
Angle:  1   109.47    9.03064e-05     1000
   4890000   56.681388     -460.51206      0             -382.56389     -4.3043462    
SHAKE stats (type/ave/delta/count) on step 4900000
Bond:   1   1         1.11427e-06     2000
Angle:  1   109.47    9.09827e-05     1000
   4900000   56.590418     -454.59375      0             -376.77069     -4.1054852    
SHAKE stats (type/ave/delta/count) on step 4910000
Bond:   1   1         1.13081e-06     2000
Angle:  1   109.47    8.40239e-05     1000
   4910000   56.863348     -457.11558      0             -378.91718      0.30877888   
SHAKE stats (type/ave/delta/count) on step 4920000
Bond:   1   1         1.2335e-06      2000
Angle:  1   109.47    0.000100526     1000
   4920000   56.048596     -455.18832      0             -378.11036     -9.0366196    
SHAKE stats (type/ave/delta/count) on step 4930000
Bond:   1   1         1.52792e-06     2000
Angle:  1   109.47    0.000140944     1000
   4930000   56.939705     -456.86414      0             -378.56073     -0.82793206   
SHAKE stats (type/ave/delta/count) on step 4940000
Bond:   1   1         1.16166e-06     2000
Angle:  1   109.47    0.000119554     1000
   4940000   57.436958     -456.64972      0             -377.66249     -3.9100912    
SHAKE stats (type/ave/delta/count) on step 4950000
Bond:   1   1         1.61976e-06     2000
Angle:  1   109.47    0.000132005     1000
   4950000   55.2296       -459.8642       0             -383.91253     -5.4069541    
SHAKE stats (type/ave/delta/count) on step 4960000
Bond:   1   1         1.46193e-06     2000
Angle:  1   109.47    0.000113138     1000
   4960000   57.367446     -457.63104      0             -378.73941     -1.5542697    
SHAKE stats (type/ave/delta/count) on step 4970000
Bond:   1   1         1.34045e-06     2000
Angle:  1   109.47    0.000124832     1000
   4970000   56.528466     -460.59906      0             -382.86119     -5.1601235    
SHAKE stats (type/ave/delta/count) on step 4980000
Bond:   1   1         1.36174e-06     2000
Angle:  1   109.47    0.000126172     1000
   4980000   57.612871     -459.85147      0             -380.62233     -3.6806213    
SHAKE stats (type/ave/delta/count) on step 4990000
Bond:   1   1         1.14679e-06     2000
Angle:  1   109.47    8.99874e-05     1000
   4990000   57.667597     -459.56628      0             -380.26187      3.3791651    
SHAKE stats (type/ave/delta/count) on step 5000000
Bond:   1   1         1.58081e-06     2000
Angle:  1   109.47    0.0001137       1000
   5000000   57.786607     -459.54554      0             -380.07747     -4.7840395    
SHAKE stats (type/ave/delta/count) on step 5010000
Bond:   1   1         1.77119e-06     2000
Angle:  1   109.47    0.000169334     1000
   5010000   55.322199     -460.14098      0             -384.06197     -4.8768105    
SHAKE stats (type/ave/delta/count) on step 5020000
Bond:   1   1         1.03621e-06     2000
Angle:  1   109.47    8.5883e-05      1000
   5020000   56.25683      -461.04243      0             -383.67811     -4.6696222    
SHAKE stats (type/ave/delta/count) on step 5030000
Bond:   1   1         1.04336e-06     2000
Angle:  1   109.47    8.40131e-05     1000
   5030000   57.167027     -460.50727      0             -381.89125     -3.4906759    
SHAKE stats (type/ave/delta/count) on step 5040000
Bond:   1   1         1.21355e-06     2000
Angle:  1   109.47    9.20989e-05     1000
   5040000   56.1879       -460.08582      0             -382.81629     -2.4631361    
SHAKE stats (type/ave/delta/count) on step 5050000
Bond:   1   1         1.4215e-06      2000
Angle:  1   109.47    0.000172056     1000
   5050000   55.990952     -454.91352      0             -377.91483      4.1447039    
SHAKE stats (type/ave/delta/count) on step 5060000
Bond:   1   1         1.24949e-06     2000
Angle:  1   109.47    9.54505e-05     1000
   5060000   56.201844     -459.84776      0             -382.55906     -4.6842092    
SHAKE stats (type/ave/delta/count) on step 5070000
Bond:   1   1         1.1498e-06      2000
Angle:  1   109.47    9.27931e-05     1000
   5070000   57.694813     -459.1076       0             -379.76577     -1.4011647    
SHAKE stats (type/ave/delta/count) on step 5080000
Bond:   1   1         1.52539e-06     2000
Angle:  1   109.47    0.000112432     1000
   5080000   57.188361     -459.07389      0             -380.42853     -1.0065839    
SHAKE stats (type/ave/delta/count) on step 5090000
Bond:   1   1         1.17949e-06     2000
Angle:  1   109.47    0.000114065     1000
   5090000   55.545399     -460.15807      0             -383.77211     -7.2219843    
SHAKE stats (type/ave/delta/count) on step 5100000
Bond:   1   1         1.04386e-06     2000
Angle:  1   109.47    9.59989e-05     1000
   5100000   57.015715     -457.47733      0             -379.0694      -2.2865555    
SHAKE stats (type/ave/delta/count) on step 5110000
Bond:   1   1         1.07563e-06     2000
Angle:  1   109.47    8.54243e-05     1000
   5110000   57.742948     -461.0602       0             -381.65217      2.387373     
SHAKE stats (type/ave/delta/count) on step 5120000
Bond:   1   1         1.35487e-06     2000
Angle:  1   109.47    0.000104452     1000
   5120000   56.223731     -464.04713      0             -386.72833     -7.5918222    
SHAKE stats (type/ave/delta/count) on step 5130000
Bond:   1   1         1.86188e-06     2000
Angle:  1   109.47    0.000153625     1000
   5130000   56.288625     -461.82211      0             -384.41406     -1.8565523    
SHAKE stats (type/ave/delta/count) on step 5140000
Bond:   1   1         1.14274e-06     2000
Angle:  1   109.47    9.42813e-05     1000
   5140000   56.829747     -457.85987      0             -379.70768     -1.8971626    
SHAKE stats (type/ave/delta/count) on step 5150000
Bond:   1   1         1.18469e-06     2000
Angle:  1   109.47    0.000110508     1000
   5150000   57.733322     -464.07104      0             -384.67625      1.0598479    
SHAKE stats (type/ave/delta/count) on step 5160000
Bond:   1   1         1.15532e-06     2000
Angle:  1   109.47    8.44245e-05     1000
   5160000   57.119403     -456.31918      0             -377.76865     -1.154818     
SHAKE stats (type/ave/delta/count) on step 5170000
Bond:   1   1         1.24001e-06     2000
Angle:  1   109.47    0.000111197     1000
   5170000   56.946158     -458.37804      0             -380.06576     -2.191748     
SHAKE stats (type/ave/delta/count) on step 5180000
Bond:   1   1         9.61312e-07     2000
Angle:  1   109.47    8.82474e-05     1000
   5180000   56.30498      -461.63402      0             -384.20348     -4.1956422    
SHAKE stats (type/ave/delta/count) on step 5190000
Bond:   1   1         1.14327e-06     2000
Angle:  1   109.47    0.000104651     1000
   5190000   56.517406     -456.77993      0             -379.05727     -4.281403     
SHAKE stats (type/ave/delta/count) on step 5200000
Bond:   1   1         1.04029e-06     2000
Angle:  1   109.47    9.32038e-05     1000
   5200000   56.10857      -463.98102      0             -386.82059     -5.4391398    
SHAKE stats (type/ave/delta/count) on step 5210000
Bond:   1   1         1.09046e-06     2000
Angle:  1   109.47    9.44298e-05     1000
   5210000   56.32322      -458.29259      0             -380.83697     -3.9294479    
SHAKE stats (type/ave/delta/count) on step 5220000
Bond:   1   1         1.094e-06       2000
Angle:  1   109.47    9.24043e-05     1000
   5220000   57.022018     -460.68261      0             -382.26601     -1.4941665    
SHAKE stats (type/ave/delta/count) on step 5230000
Bond:   1   1         1.19073e-06     2000
Angle:  1   109.47    9.52958e-05     1000
   5230000   56.604767     -457.74082      0             -379.89802     -0.87907055   
SHAKE stats (type/ave/delta/count) on step 5240000
Bond:   1   1         1.55016e-06     2000
Angle:  1   109.47    0.000118548     1000
   5240000   56.160787     -454.00854      0             -376.7763      -4.6917221    
SHAKE stats (type/ave/delta/count) on step 5250000
Bond:   1   1         1.05343e-06     2000
Angle:  1   109.47    9.30427e-05     1000
   5250000   56.975841     -458.0119       0             -379.6588      -8.6210334    
SHAKE stats (type/ave/delta/count) on step 5260000
Bond:   1   1         1.1281e-06      2000
Angle:  1   109.47    9.88356e-05     1000
   5260000   56.467958     -456.82329      0             -379.16863     -6.6114736    
SHAKE stats (type/ave/delta/count) on step 5270000
Bond:   1   1         1.21964e-06     2000
Angle:  1   109.47    8.98499e-05     1000
   5270000   56.808978     -461.01865      0             -382.89502     -0.77047746   
SHAKE stats (type/ave/delta/count) on step 5280000
Bond:   1   1         1.46767e-06     2000
Angle:  1   109.47    0.000108464     1000
   5280000   57.385813     -462.47477      0             -383.55788      2.1129531    
SHAKE stats (type/ave/delta/count) on step 5290000
Bond:   1   1         1.16668e-06     2000
Angle:  1   109.47    9.51853e-05     1000
   5290000   58.124575     -455.12521      0             -375.19237     -5.1428526    
SHAKE stats (type/ave/delta/count) on step 5300000
Bond:   1   1         1.83765e-06     2000
Angle:  1   109.47    0.000134029     1000
   5300000   55.912602     -450.82452      0             -373.93358     -1.0898708    
SHAKE stats (type/ave/delta/count) on step 5310000
Bond:   1   1         1.29951e-06     2000
Angle:  1   109.47    9.87569e-05     1000
   5310000   57.32252      -460.9731       0             -382.14325     -1.8789707    
SHAKE stats (type/ave/delta/count) on step 5320000
Bond:   1   1         1.0644e-06      2000
Angle:  1   109.47    8.51631e-05     1000
   5320000   57.706815     -457.19787      0             -377.83953     -0.62250026   
SHAKE stats (type/ave/delta/count) on step 5330000
Bond:   1   1         1.39084e-06     2000
Angle:  1   109.47    0.000102598     1000
   5330000   56.316966     -457.01995      0             -379.57293     -4.7781359    
SHAKE stats (type/ave/delta/count) on step 5340000
Bond:   1   1         1.07739e-06     2000
Angle:  1   109.47    9.5408e-05      1000
   5340000   58.505035     -458.9888       0             -378.53276     -1.657059     
SHAKE stats (type/ave/delta/count) on step 5350000
Bond:   1   1         1.07815e-06     2000
Angle:  1   109.47    8.6411e-05      1000
   5350000   56.075193     -456.08805      0             -378.97352     -0.10132594   
SHAKE stats (type/ave/delta/count) on step 5360000
Bond:   1   1         1.58502e-06     2000
Angle:  1   109.47    0.000106108     1000
   5360000   56.71827      -457.17892      0             -379.18003     -8.5125879    
SHAKE stats (type/ave/delta/count) on step 5370000
Bond:   1   1         1.0033e-06      2000
Angle:  1   109.47    0.000108171     1000
   5370000   57.941263     -460.25906      0             -380.57831     -2.2235286    
SHAKE stats (type/ave/delta/count) on step 5380000
Bond:   1   1         1.47718e-06     2000
Angle:  1   109.47    0.000105952     1000
   5380000   56.002566     -459.07744      0             -382.06278     -0.8696415    
SHAKE stats (type/ave/delta/count) on step 5390000
Bond:   1   1         1.27946e-06     2000
Angle:  1   109.47    9.4553e-05      1000
   5390000   54.54826      -462.65598      0             -387.64129      0.45355479   
SHAKE stats (type/ave/delta/count) on step 5400000
Bond:   1   1         1.43676e-06     2000
Angle:  1   109.47    0.000118767     1000
   5400000   56.67518      -456.59029      0             -378.65066     -8.3217856    
SHAKE stats (type/ave/delta/count) on step 5410000
Bond:   1   1         1.14435e-06     2000
Angle:  1   109.47    8.92815e-05     1000
   5410000   56.717531     -455.16026      0             -377.16238     -2.6385369    
SHAKE stats (type/ave/delta/count) on step 5420000
Bond:   1   1         1.23834e-06     2000
Angle:  1   109.47    9.11342e-05     1000
   5420000   56.691209     -455.33474      0             -377.37306     -2.4590365    
SHAKE stats (type/ave/delta/count) on step 5430000
Bond:   1   1         1.1052e-06      2000
Angle:  1   109.47    8.84271e-05     1000
   5430000   54.60606      -454.9805       0             -379.88632     -6.7189401    
SHAKE stats (type/ave/delta/count) on step 5440000
Bond:   1   1         1.13464e-06     2000
Angle:  1   109.47    9.19541e-05     1000
   5440000   56.899041     -460.22821      0             -381.98072     -1.3453032    
SHAKE stats (type/ave/delta/count) on step 5450000
Bond:   1   1         1.29242e-06     2000
Angle:  1   109.47    0.000104351     1000
   5450000   56.074695     -455.72295      0             -378.6091      -1.3552323    
SHAKE stats (type/ave/delta/count) on step 5460000
Bond:   1   1         1.05036e-06     2000
Angle:  1   109.47    9.35096e-05     1000
   5460000   55.696308     -456.18064      0             -379.58715     -8.0917866    
SHAKE stats (type/ave/delta/count) on step 5470000
Bond:   1   1         1.03641e-06     2000
Angle:  1   109.47    9.33283e-05     1000
   5470000   56.55645      -459.68252      0             -381.90616     -3.9350704    
SHAKE stats (type/ave/delta/count) on step 5480000
Bond:   1   1         1.01866e-06     2000
Angle:  1   109.47    9.09698e-05     1000
   5480000   56.558443     -454.96125      0             -377.18215     -7.7221837    
SHAKE stats (type/ave/delta/count) on step 5490000
Bond:   1   1         1.1284e-06      2000
Angle:  1   109.47    8.94237e-05     1000
   5490000   56.089565     -460.91217      0             -383.77788     -0.4112544    
SHAKE stats (type/ave/delta/count) on step 5500000
Bond:   1   1         1.26933e-06     2000
Angle:  1   109.47    9.70067e-05     1000
   5500000   54.021437     -455.94891      0             -381.6587      -2.1419868    
SHAKE stats (type/ave/delta/count) on step 5510000
Bond:   1   1         1.3099e-06      2000
Angle:  1   109.47    0.000101959     1000
   5510000   56.0713       -457.47571      0             -380.36654     -2.8018335    
SHAKE stats (type/ave/delta/count) on step 5520000
Bond:   1   1         1.41236e-06     2000
Angle:  1   109.47    9.08563e-05     1000
   5520000   54.603037     -460.70299      0             -385.61297      4.8823424    
SHAKE stats (type/ave/delta/count) on step 5530000
Bond:   1   1         1.44755e-06     2000
Angle:  1   109.47    0.000158032     1000
   5530000   56.615535     -457.94962      0             -380.09202     -1.7616567    
SHAKE stats (type/ave/delta/count) on step 5540000
Bond:   1   1         1.10171e-06     2000
Angle:  1   109.47    0.000117023     1000
   5540000   55.418365     -454.01059      0             -377.79933      2.8911078    
SHAKE stats (type/ave/delta/count) on step 5550000
Bond:   1   1         1.27709e-06     2000
Angle:  1   109.47    0.000103589     1000
   5550000   57.267108     -456.62491      0             -377.87126     -7.3074201    
SHAKE stats (type/ave/delta/count) on step 5560000
Bond:   1   1         1.23076e-06     2000
Angle:  1   109.47    0.000105022     1000
   5560000   55.129765     -456.94718      0             -381.1328       0.022682868  
SHAKE stats (type/ave/delta/count) on step 5570000
Bond:   1   1         1.24248e-06     2000
Angle:  1   109.47    0.000111822     1000
   5570000   55.55983      -458.03166      0             -381.62586     -11.92324     
SHAKE stats (type/ave/delta/count) on step 5580000
Bond:   1   1         1.27965e-06     2000
Angle:  1   109.47    9.8413e-05      1000
   5580000   57.544908     -459.75064      0             -380.61496     -2.1812291    
SHAKE stats (type/ave/delta/count) on step 5590000
Bond:   1   1         1.37905e-06     2000
Angle:  1   109.47    9.58083e-05     1000
   5590000   57.67907      -456.3362       0             -377.01602     -6.7069298    
SHAKE stats (type/ave/delta/count) on step 5600000
Bond:   1   1         1.40688e-06     2000
Angle:  1   109.47    0.000110549     1000
   5600000   53.883334     -456.84863      0             -382.74834     -5.2717473    
SHAKE stats (type/ave/delta/count) on step 5610000
Bond:   1   1         1.28052e-06     2000
Angle:  1   109.47    0.000142225     1000
   5610000   57.560923     -457.34882      0             -378.19111     -1.3825361    
SHAKE stats (type/ave/delta/count) on step 5620000
Bond:   1   1         1.16612e-06     2000
Angle:  1   109.47    8.79459e-05     1000
   5620000   56.472658     -456.87294      0             -379.21181     -1.6693003    
SHAKE stats (type/ave/delta/count) on step 5630000
Bond:   1   1         1.40384e-06     2000
Angle:  1   109.47    0.00011868      1000
   5630000   57.249859     -455.10602      0             -376.37609     -9.5522811    
SHAKE stats (type/ave/delta/count) on step 5640000
Bond:   1   1         1.03957e-06     2000
Angle:  1   109.47    9.17649e-05     1000
   5640000   56.995184     -459.42932      0             -381.04962     -6.268662     
SHAKE stats (type/ave/delta/count) on step 5650000
Bond:   1   1         1.3006e-06      2000
Angle:  1   109.47    9.27503e-05     1000
   5650000   56.056956     -460.07148      0             -382.98203      0.1102325    
SHAKE stats (type/ave/delta/count) on step 5660000
Bond:   1   1         1.17773e-06     2000
Angle:  1   109.47    0.000110546     1000
   5660000   57.513196     -462.6579       0             -383.56583      0.67860824   
SHAKE stats (type/ave/delta/count) on step 5670000
Bond:   1   1         1.10379e-06     2000
Angle:  1   109.47    9.98546e-05     1000
   5670000   57.022038     -460.31111      0             -381.89447     -3.5881024    
SHAKE stats (type/ave/delta/count) on step 5680000
Bond:   1   1         1.09977e-06     2000
Angle:  1   109.47    9.36852e-05     1000
   5680000   55.885731     -459.04956      0             -382.19557     -3.2441458    
SHAKE stats (type/ave/delta/count) on step 5690000
Bond:   1   1         1.24267e-06     2000
Angle:  1   109.47    9.10274e-05     1000
   5690000   56.962951     -459.32553      0             -380.99015     -3.7019554    
SHAKE stats (type/ave/delta/count) on step 5700000
Bond:   1   1         1.08596e-06     2000
Angle:  1   109.47    8.79782e-05     1000
   5700000   56.466535     -454.95907      0             -377.30637     -2.6999065    
SHAKE stats (type/ave/delta/count) on step 5710000
Bond:   1   1         1.92271e-06     2000
Angle:  1   109.47    0.000160804     1000
   5710000   56.387435     -456.09956      0             -378.55563     -2.8480241    
SHAKE stats (type/ave/delta/count) on step 5720000
Bond:   1   1         1.30533e-06     2000
Angle:  1   109.47    8.9538e-05      1000
   5720000   57.608492     -460.54607      0             -381.32295     -6.573311     
SHAKE stats (type/ave/delta/count) on step 5730000
Bond:   1   1         1.36106e-06     2000
Angle:  1   109.47    9.37392e-05     1000
   5730000   56.65237      -456.75705      0             -378.84879     -11.812644    
SHAKE stats (type/ave/delta/count) on step 5740000
Bond:   1   1         1.43914e-06     2000
Angle:  1   109.47    0.000107901     1000
   5740000   56.159027     -460.87784      0             -383.64802     -7.0649857    
SHAKE stats (type/ave/delta/count) on step 5750000
Bond:   1   1         1.41801e-06     2000
Angle:  1   109.47    0.000101151     1000
   5750000   56.677923     -456.48986      0             -378.54646     -2.8531295    
SHAKE stats (type/ave/delta/count) on step 5760000
Bond:   1   1         1.41681e-06     2000
Angle:  1   109.47    9.25787e-05     1000
   5760000   56.585641     -457.59861      0             -379.78211     -5.2057725    
SHAKE stats (type/ave/delta/count) on step 5770000
Bond:   1   1         1.08013e-06     2000
Angle:  1   109.47    0.000120815     1000
   5770000   56.818312     -458.74955      0             -380.61308     -4.4016971    
SHAKE stats (type/ave/delta/count) on step 5780000
Bond:   1   1         1.16868e-06     2000
Angle:  1   109.47    0.000103515     1000
   5780000   59.513402     -461.42804      0             -379.58529     -2.6696512    
SHAKE stats (type/ave/delta/count) on step 5790000
Bond:   1   1         1.08319e-06     2000
Angle:  1   109.47    9.70263e-05     1000
   5790000   57.817037     -461.5623       0             -382.05239     -5.1791245    
SHAKE stats (type/ave/delta/count) on step 5800000
Bond:   1   1         1.1597e-06      2000
Angle:  1   109.47    8.95839e-05     1000
   5800000   56.828125     -455.90059      0             -377.75063      1.1995944    
SHAKE stats (type/ave/delta/count) on step 5810000
Bond:   1   1         9.92184e-07     2000
Angle:  1   109.47    9.45284e-05     1000
   5810000   57.061858     -458.45286      0             -379.98147      0.049964775  
SHAKE stats (type/ave/delta/count) on step 5820000
Bond:   1   1         1.31222e-06     2000
Angle:  1   109.47    0.000101508     1000
   5820000   55.672946     -459.65083      0             -383.08947     -1.0783919    
SHAKE stats (type/ave/delta/count) on step 5830000
Bond:   1   1         2.08735e-06     2000
Angle:  1   109.47    0.000156941     1000
   5830000   55.60919      -459.92294      0             -383.44925      1.935474     
SHAKE stats (type/ave/delta/count) on step 5840000
Bond:   1   1         1.0934e-06      2000
Angle:  1   109.47    8.5849e-05      1000
   5840000   54.772291     -453.99506      0             -378.67228     -10.222558    
SHAKE stats (type/ave/delta/count) on step 5850000
Bond:   1   1         1.23674e-06     2000
Angle:  1   109.47    9.379e-05       1000
   5850000   56.676451     -462.30952      0             -384.36813      1.1487459    
SHAKE stats (type/ave/delta/count) on step 5860000
Bond:   1   1         1.22181e-06     2000
Angle:  1   109.47    8.64765e-05     1000
   5860000   56.18728      -455.98458      0             -378.7159      -1.792115     
SHAKE stats (type/ave/delta/count) on step 5870000
Bond:   1   1         1.16928e-06     2000
Angle:  1   109.47    0.000102776     1000
   5870000   56.329186     -458.19124      0             -380.72742     -3.1112507    
SHAKE stats (type/ave/delta/count) on step 5880000
Bond:   1   1         1.2812e-06      2000
Angle:  1   109.47    8.86824e-05     1000
   5880000   56.189824     -455.56504      0             -378.29287     -2.3411143    
SHAKE stats (type/ave/delta/count) on step 5890000
Bond:   1   1         1.07879e-06     2000
Angle:  1   109.47    9.14631e-05     1000
   5890000   57.522779     -455.66343      0             -376.55818     -3.9731043    
SHAKE stats (type/ave/delta/count) on step 5900000
Bond:   1   1         1.25406e-06     2000
Angle:  1   109.47    0.000116741     1000
   5900000   55.703791     -456.92713      0             -380.32335     -0.93571606   
SHAKE stats (type/ave/delta/count) on step 5910000
Bond:   1   1         1.30787e-06     2000
Angle:  1   109.47    0.00010353      1000
   5910000   55.540517     -458.99739      0             -382.61815      2.3554221    
SHAKE stats (type/ave/delta/count) on step 5920000
Bond:   1   1         1.57911e-06     2000
Angle:  1   109.47    0.000149336     1000
   5920000   57.294825     -452.56988      0             -373.77811      3.3919842    
SHAKE stats (type/ave/delta/count) on step 5930000
Bond:   1   1         1.2133e-06      2000
Angle:  1   109.47    0.000101145     1000
   5930000   55.915574     -462.16129      0             -385.26627      1.7915837    
SHAKE stats (type/ave/delta/count) on step 5940000
Bond:   1   1         1.43346e-06     2000
Angle:  1   109.47    0.000104639     1000
   5940000   54.561194     -459.72037      0             -384.68788     -0.63500324   
SHAKE stats (type/ave/delta/count) on step 5950000
Bond:   1   1         1.10111e-06     2000
Angle:  1   109.47    0.000105368     1000
   5950000   56.577082     -459.22602      0             -381.42129      0.60554817   
SHAKE stats (type/ave/delta/count) on step 5960000
Bond:   1   1         1.27012e-06     2000
Angle:  1   109.47    9.26895e-05     1000
   5960000   56.727528     -453.59287      0             -375.58125     -7.4552895    
SHAKE stats (type/ave/delta/count) on step 5970000
Bond:   1   1         1.2107e-06      2000
Angle:  1   109.47    8.91584e-05     1000
   5970000   56.956185     -456.13563      0             -377.80956     -0.60452078   
SHAKE stats (type/ave/delta/count) on step 5980000
Bond:   1   1         1.18022e-06     2000
Angle:  1   109.47    8.58622e-05     1000
   5980000   56.008833     -454.02483      0             -377.00155     -3.4626768    
SHAKE stats (type/ave/delta/count) on step 5990000
Bond:   1   1         1.20395e-06     2000
Angle:  1   109.47    0.00010768      1000
   5990000   55.868102     -458.15303      0             -381.32328     -8.9496434    
SHAKE stats (type/ave/delta/count) on step 6000000
Bond:   1   1         1.80532e-06     2000
Angle:  1   109.47    0.000135932     1000
   6000000   55.956784     -460.97426      0             -384.02256      1.3557794    
SHAKE stats (type/ave/delta/count) on step 6010000
Bond:   1   1         1.13271e-06     2000
Angle:  1   109.47    9.79204e-05     1000
   6010000   56.119532     -455.46434      0             -378.28883     -5.3041623    
SHAKE stats (type/ave/delta/count) on step 6020000
Bond:   1   1         1.06485e-06     2000
Angle:  1   109.47    8.6668e-05      1000
   6020000   59.23091      -457.3319       0             -375.87763     -1.2222624    
SHAKE stats (type/ave/delta/count) on step 6030000
Bond:   1   1         1.21182e-06     2000
Angle:  1   109.47    9.28187e-05     1000
   6030000   59.037965     -460.00608      0             -378.81715     -3.4804121    
SHAKE stats (type/ave/delta/count) on step 6040000
Bond:   1   1         1.31166e-06     2000
Angle:  1   109.47    0.000102746     1000
   6040000   56.342161     -457.47902      0             -379.99735     -6.144735     
SHAKE stats (type/ave/delta/count) on step 6050000
Bond:   1   1         1.19683e-06     2000
Angle:  1   109.47    0.00010627      1000
   6050000   55.372752     -454.97213      0             -378.82359     -3.6404358    
SHAKE stats (type/ave/delta/count) on step 6060000
Bond:   1   1         1.31417e-06     2000
Angle:  1   109.47    0.000143807     1000
   6060000   56.654477     -455.4666       0             -377.55544     -8.7518846    
SHAKE stats (type/ave/delta/count) on step 6070000
Bond:   1   1         1.14604e-06     2000
Angle:  1   109.47    0.000119657     1000
   6070000   57.154054     -458.93632      0             -380.33814     -5.5196956    
SHAKE stats (type/ave/delta/count) on step 6080000
Bond:   1   1         1.45396e-06     2000
Angle:  1   109.47    9.59903e-05     1000
   6080000   55.84777      -457.76735      0             -380.96557      3.4598376    
SHAKE stats (type/ave/delta/count) on step 6090000
Bond:   1   1         1.58673e-06     2000
Angle:  1   109.47    0.000129952     1000
   6090000   55.752599     -458.62873      0             -381.95783     -1.4035011    
SHAKE stats (type/ave/delta/count) on step 6100000
Bond:   1   1         1.42246e-06     2000
Angle:  1   109.47    9.86174e-05     1000
   6100000   56.359285     -461.12082      0             -383.6156       2.2666189    
SHAKE stats (type/ave/delta/count) on step 6110000
Bond:   1   1         1.03542e-06     2000
Angle:  1   109.47    8.38561e-05     1000
   6110000   56.187531     -464.2401       0             -386.97108     -2.2805782    
SHAKE stats (type/ave/delta/count) on step 6120000
Bond:   1   1         1.02322e-06     2000
Angle:  1   109.47    9.44986e-05     1000
   6120000   56.209362     -455.54623      0             -378.24719     -12.514445    
SHAKE stats (type/ave/delta/count) on step 6130000
Bond:   1   1         1.1458e-06      2000
Angle:  1   109.47    9.34364e-05     1000
   6130000   57.708252     -459.53358      0             -380.17327      5.5115627    
SHAKE stats (type/ave/delta/count) on step 6140000
Bond:   1   1         1.33567e-06     2000
Angle:  1   109.47    0.000102967     1000
   6140000   56.999793     -458.1748       0             -379.78876     -3.2070097    
SHAKE stats (type/ave/delta/count) on step 6150000
Bond:   1   1         1.12796e-06     2000
Angle:  1   109.47    9.32675e-05     1000
   6150000   57.888526     -463.56938      0             -383.96115     -5.296826     
SHAKE stats (type/ave/delta/count) on step 6160000
Bond:   1   1         1.19788e-06     2000
Angle:  1   109.47    8.6217e-05      1000
   6160000   56.085188     -460.44075      0             -383.31247     -1.7286837    
SHAKE stats (type/ave/delta/count) on step 6170000
Bond:   1   1         1.09554e-06     2000
Angle:  1   109.47    8.77287e-05     1000
   6170000   53.639151     -461.59749      0             -387.833       -1.7905446    
SHAKE stats (type/ave/delta/count) on step 6180000
Bond:   1   1         1.15306e-06     2000
Angle:  1   109.47    8.7577e-05      1000
   6180000   56.107621     -460.83958      0             -383.68046     -4.6244041    
SHAKE stats (type/ave/delta/count) on step 6190000
Bond:   1   1         1.40809e-06     2000
Angle:  1   109.47    9.56587e-05     1000
   6190000   55.876404     -458.90499      0             -382.06384     -4.8650064    
SHAKE stats (type/ave/delta/count) on step 6200000
Bond:   1   1         1.43217e-06     2000
Angle:  1   109.47    9.89775e-05     1000
   6200000   56.8107       -460.17871      0             -382.05271     -2.8717123    
SHAKE stats (type/ave/delta/count) on step 6210000
Bond:   1   1         1.23851e-06     2000
Angle:  1   109.47    0.000111186     1000
   6210000   56.489849     -462.85284      0             -385.16807     -5.5124261    
SHAKE stats (type/ave/delta/count) on step 6220000
Bond:   1   1         1.31509e-06     2000
Angle:  1   109.47    0.000107597     1000
   6220000   55.993835     -455.97927      0             -378.97663     -0.78829582   
SHAKE stats (type/ave/delta/count) on step 6230000
Bond:   1   1         1.05968e-06     2000
Angle:  1   109.47    9.20202e-05     1000
   6230000   54.178777     -461.84076      0             -387.33418     -11.965934    
SHAKE stats (type/ave/delta/count) on step 6240000
Bond:   1   1         1.22932e-06     2000
Angle:  1   109.47    0.000100215     1000
   6240000   53.690144     -462.31283      0             -388.47822      1.4180856    
SHAKE stats (type/ave/delta/count) on step 6250000
Bond:   1   1         1.20883e-06     2000
Angle:  1   109.47    0.000109273     1000
   6250000   57.260208     -461.82815      0             -383.08399     -2.6135712    
SHAKE stats (type/ave/delta/count) on step 6260000
Bond:   1   1         1.2575e-06      2000
Angle:  1   109.47    9.37422e-05     1000
   6260000   56.285326     -460.08771      0             -382.6842      -5.2620331    
SHAKE stats (type/ave/delta/count) on step 6270000
Bond:   1   1         1.24334e-06     2000
Angle:  1   109.47    9.19865e-05     1000
   6270000   55.880945     -462.91567      0             -386.06827     -5.6912347    
SHAKE stats (type/ave/delta/count) on step 6280000
Bond:   1   1         1.24772e-06     2000
Angle:  1   109.47    9.95808e-05     1000
   6280000   57.484838     -457.61678      0             -378.56371     -4.4150628    
SHAKE stats (type/ave/delta/count) on step 6290000
Bond:   1   1         1.26783e-06     2000
Angle:  1   109.47    9.36956e-05     1000
   6290000   55.469786     -462.13082      0             -385.84884     -3.7582475    
SHAKE stats (type/ave/delta/count) on step 6300000
Bond:   1   1         1.16849e-06     2000
Angle:  1   109.47    9.77319e-05     1000
   6300000   56.665393     -465.5743       0             -387.64813     -3.3987522    
SHAKE stats (type/ave/delta/count) on step 6310000
Bond:   1   1         1.1175e-06      2000
Angle:  1   109.47    9.22939e-05     1000
   6310000   58.031668     -461.05449      0             -381.24942      2.8515676    
SHAKE stats (type/ave/delta/count) on step 6320000
Bond:   1   1         1.36147e-06     2000
Angle:  1   109.47    9.82337e-05     1000
   6320000   55.130516     -460.44202      0             -384.62661     -5.7107938    
SHAKE stats (type/ave/delta/count) on step 6330000
Bond:   1   1         1.79922e-06     2000
Angle:  1   109.47    0.000196141     1000
   6330000   58.304535     -458.36017      0             -378.17985      0.41577743   
SHAKE stats (type/ave/delta/count) on step 6340000
Bond:   1   1         2.66034e-06     2000
Angle:  1   109.47    0.000172571     1000
   6340000   57.980523     -456.24807      0             -376.51333     -4.0324641    
SHAKE stats (type/ave/delta/count) on step 6350000
Bond:   1   1         1.42424e-06     2000
Angle:  1   109.47    0.000102627     1000
   6350000   56.582727     -460.46655      0             -382.65406      0.26757575   
SHAKE stats (type/ave/delta/count) on step 6360000
Bond:   1   1         1.01175e-06     2000
Angle:  1   109.47    8.93713e-05     1000
   6360000   56.541844     -459.72021      0             -381.96394     -9.7088702    
SHAKE stats (type/ave/delta/count) on step 6370000
Bond:   1   1         1.86877e-06     2000
Angle:  1   109.47    0.000120874     1000
   6370000   56.291735     -459.78209      0             -382.36977     -6.6224397    
SHAKE stats (type/ave/delta/count) on step 6380000
Bond:   1   1         1.01406e-06     2000
Angle:  1   109.47    8.16975e-05     1000
   6380000   56.197191     -463.71239      0             -386.43009     -6.195786     
SHAKE stats (type/ave/delta/count) on step 6390000
Bond:   1   1         1.17315e-06     2000
Angle:  1   109.47    9.27378e-05     1000
   6390000   56.783439     -458.83198      0             -380.74347     -4.432563     
SHAKE stats (type/ave/delta/count) on step 6400000
Bond:   1   1         1.34113e-06     2000
Angle:  1   109.47    0.00013197      1000
   6400000   56.463201     -461.63473      0             -383.98661     -6.0666024    
SHAKE stats (type/ave/delta/count) on step 6410000
Bond:   1   1         1.23439e-06     2000
Angle:  1   109.47    9.93971e-05     1000
   6410000   56.675417     -459.68274      0             -381.74278     -6.5000171    
SHAKE stats (type/ave/delta/count) on step 6420000
Bond:   1   1         1.46786e-06     2000
Angle:  1   109.47    0.000143821     1000
   6420000   56.328787     -458.88877      0             -381.42549     -1.4048789    
SHAKE stats (type/ave/delta/count) on step 6430000
Bond:   1   1         1.24939e-06     2000
Angle:  1   109.47    8.45545e-05     1000
   6430000   57.008948     -463.08182      0             -384.68319      2.6138176    
SHAKE stats (type/ave/delta/count) on step 6440000
Bond:   1   1         1.53533e-06     2000
Angle:  1   109.47    9.91445e-05     1000
   6440000   55.471477     -459.65303      0             -383.36872     -3.1296518    
SHAKE stats (type/ave/delta/count) on step 6450000
Bond:   1   1         1.35406e-06     2000
Angle:  1   109.47    0.000105366     1000
   6450000   57.843647     -456.98818      0             -377.44167     -8.2050697    
SHAKE stats (type/ave/delta/count) on step 6460000
Bond:   1   1         1.04244e-06     2000
Angle:  1   109.47    0.000129845     1000
   6460000   57.396516     -457.74329      0             -378.81168      1.3350594    
SHAKE stats (type/ave/delta/count) on step 6470000
Bond:   1   1         1.06896e-06     2000
Angle:  1   109.47    9.37449e-05     1000
   6470000   55.985349     -457.93638      0             -380.94541      1.0780876    
SHAKE stats (type/ave/delta/count) on step 6480000
Bond:   1   1         1.0946e-06      2000
Angle:  1   109.47    0.000108509     1000
   6480000   55.551474     -454.44184      0             -378.04753     -7.4264534    
SHAKE stats (type/ave/delta/count) on step 6490000
Bond:   1   1         1.2876e-06      2000
Angle:  1   109.47    0.000103804     1000
   6490000   56.214417     -456.74606      0             -379.44007     -7.0660071    
SHAKE stats (type/ave/delta/count) on step 6500000
Bond:   1   1         1.42351e-06     2000
Angle:  1   109.47    0.000117087     1000
   6500000   56.253845     -458.14279      0             -380.78258      1.910323     
SHAKE stats (type/ave/delta/count) on step 6510000
Bond:   1   1         1.26098e-06     2000
Angle:  1   109.47    8.6007e-05      1000
   6510000   55.913507     -459.51862      0             -382.62644      1.991786     
SHAKE stats (type/ave/delta/count) on step 6520000
Bond:   1   1         2.45785e-06     2000
Angle:  1   109.47    0.000120301     1000
   6520000   54.518584     -457.92795      0             -382.95406     -8.8482648    
SHAKE stats (type/ave/delta/count) on step 6530000
Bond:   1   1         1.62752e-06     2000
Angle:  1   109.47    0.000116964     1000
   6530000   57.636503     -459.61692      0             -380.35528     -2.0712034    
SHAKE stats (type/ave/delta/count) on step 6540000
Bond:   1   1         1.23548e-06     2000
Angle:  1   109.47    9.65489e-05     1000
   6540000   56.431019     -457.60692      0             -380.00306      5.3943024    
SHAKE stats (type/ave/delta/count) on step 6550000
Bond:   1   1         1.30035e-06     2000
Angle:  1   109.47    9.24897e-05     1000
   6550000   55.610902     -461.77127      0             -385.29523     -2.8939379    
SHAKE stats (type/ave/delta/count) on step 6560000
Bond:   1   1         1.25609e-06     2000
Angle:  1   109.47    0.00010104      1000
   6560000   55.495897     -454.14725      0             -377.82936     -4.9492003    
SHAKE stats (type/ave/delta/count) on step 6570000
Bond:   1   1         1.18747e-06     2000
Angle:  1   109.47    0.000116124     1000
   6570000   56.577545     -457.97568      0             -380.17031     -6.8833822    
SHAKE stats (type/ave/delta/count) on step 6580000
Bond:   1   1         1.2491e-06      2000
Angle:  1   109.47    0.000122475     1000
   6580000   58.465377     -458.50929      0             -378.10778     -5.7036408    
SHAKE stats (type/ave/delta/count) on step 6590000
Bond:   1   1         1.32917e-06     2000
Angle:  1   109.47    0.000113489     1000
   6590000   56.381621     -460.1815       0             -382.64557     -8.2280874    
SHAKE stats (type/ave/delta/count) on step 6600000
Bond:   1   1         1.32002e-06     2000
Angle:  1   109.47    0.000100716     1000
   6600000   56.483326     -458.30861      0             -380.63282     -3.6509334    
SHAKE stats (type/ave/delta/count) on step 6610000
Bond:   1   1         1.2651e-06      2000
Angle:  1   109.47    8.85987e-05     1000
   6610000   57.153557     -455.65397      0             -377.05647     -0.18607223   
SHAKE stats (type/ave/delta/count) on step 6620000
Bond:   1   1         1.08843e-06     2000
Angle:  1   109.47    0.000106676     1000
   6620000   56.252813     -460.81909      0             -383.4603       0.55875295   
SHAKE stats (type/ave/delta/count) on step 6630000
Bond:   1   1         1.41588e-06     2000
Angle:  1   109.47    9.10168e-05     1000
   6630000   55.988245     -455.92142      0             -378.92646     -3.007693     
SHAKE stats (type/ave/delta/count) on step 6640000
Bond:   1   1         1.23068e-06     2000
Angle:  1   109.47    9.41392e-05     1000
   6640000   57.443518     -453.19711      0             -374.20086     -0.52734266   
SHAKE stats (type/ave/delta/count) on step 6650000
Bond:   1   1         1.33584e-06     2000
Angle:  1   109.47    0.000107902     1000
   6650000   56.248671     -456.03522      0             -378.68212     -4.208554     
SHAKE stats (type/ave/delta/count) on step 6660000
Bond:   1   1         1.03162e-06     2000
Angle:  1   109.47    0.000102464     1000
   6660000   55.016226     -456.06416      0             -380.40592     -7.272673     
SHAKE stats (type/ave/delta/count) on step 6670000
Bond:   1   1         1.73733e-06     2000
Angle:  1   109.47    0.000106562     1000
   6670000   56.685741     -455.08115      0             -377.127       -1.8133329    
SHAKE stats (type/ave/delta/count) on step 6680000
Bond:   1   1         1.22871e-06     2000
Angle:  1   109.47    0.000118332     1000
   6680000   55.771183     -458.78358      0             -382.08713     -7.1022623    
SHAKE stats (type/ave/delta/count) on step 6690000
Bond:   1   1         1.39908e-06     2000
Angle:  1   109.47    9.34351e-05     1000
   6690000   57.167159     -457.08941      0             -378.47321     -2.6370888    
SHAKE stats (type/ave/delta/count) on step 6700000
Bond:   1   1         1.07618e-06     2000
Angle:  1   109.47    9.40007e-05     1000
   6700000   55.746365     -458.23132      0             -381.56899     -2.6552478    
SHAKE stats (type/ave/delta/count) on step 6710000
Bond:   1   1         1.29375e-06     2000
Angle:  1   109.47    0.000133466     1000
   6710000   56.349133     -458.45248      0             -380.96122     -13.360697    
SHAKE stats (type/ave/delta/count) on step 6720000
Bond:   1   1         1.57762e-06     2000
Angle:  1   109.47    0.000117028     1000
   6720000   55.002744     -459.6273       0             -383.9876      -8.3346909    
SHAKE stats (type/ave/delta/count) on step 6730000
Bond:   1   1         1.19267e-06     2000
Angle:  1   109.47    9.36324e-05     1000
   6730000   55.703271     -457.96116      0             -381.3581       0.13591379   
SHAKE stats (type/ave/delta/count) on step 6740000
Bond:   1   1         1.11191e-06     2000
Angle:  1   109.47    0.000102544     1000
   6740000   56.953059     -457.74955      0             -379.42778     -1.9969561    
SHAKE stats (type/ave/delta/count) on step 6750000
Bond:   1   1         1.14575e-06     2000
Angle:  1   109.47    0.00010615      1000
   6750000   56.54045      -459.19425      0             -381.4399       3.4190711    
SHAKE stats (type/ave/delta/count) on step 6760000
Bond:   1   1         1.51139e-06     2000
Angle:  1   109.47    0.000115916     1000
   6760000   56.011541     -452.94244      0             -375.91544     -1.517833     
SHAKE stats (type/ave/delta/count) on step 6770000
Bond:   1   1         1.33185e-06     2000
Angle:  1   109.47    0.000100076     1000
   6770000   58.233976     -458.95631      0             -378.87302     -7.3756005    
SHAKE stats (type/ave/delta/count) on step 6780000
Bond:   1   1         1.60652e-06     2000
Angle:  1   109.47    0.000107384     1000
   6780000   55.705649     -456.9536       0             -380.34727      2.3198649    
SHAKE stats (type/ave/delta/count) on step 6790000
Bond:   1   1         1.1544e-06      2000
Angle:  1   109.47    9.7011e-05      1000
   6790000   54.460689     -460.89799      0             -386.00372     -3.4238319    
SHAKE stats (type/ave/delta/count) on step 6800000
Bond:   1   1         1.15007e-06     2000
Angle:  1   109.47    8.91161e-05     1000
   6800000   56.242961     -461.72941      0             -384.38416     -2.521172     
SHAKE stats (type/ave/delta/count) on step 6810000
Bond:   1   1         1.98066e-06     2000
Angle:  1   109.47    0.000171196     1000
   6810000   55.877921     -462.91181      0             -386.06857     -5.1417121    
SHAKE stats (type/ave/delta/count) on step 6820000
Bond:   1   1         1.09196e-06     2000
Angle:  1   109.47    9.21644e-05     1000
   6820000   56.783452     -456.61936      0             -378.53083     -0.57208472   
SHAKE stats (type/ave/delta/count) on step 6830000
Bond:   1   1         1.34911e-06     2000
Angle:  1   109.47    0.000151599     1000
   6830000   57.121717     -456.64237      0             -378.08866     -7.8327976    
SHAKE stats (type/ave/delta/count) on step 6840000
Bond:   1   1         1.33573e-06     2000
Angle:  1   109.47    0.000134443     1000
   6840000   55.812308     -457.10711      0             -380.3541      -2.6913424    
SHAKE stats (type/ave/delta/count) on step 6850000
Bond:   1   1         1.24097e-06     2000
Angle:  1   109.47    9.05514e-05     1000
   6850000   55.947834     -458.59406      0             -381.65468     -1.0636928    
SHAKE stats (type/ave/delta/count) on step 6860000
Bond:   1   1         1.4354e-06      2000
Angle:  1   109.47    0.00011246      1000
   6860000   58.146976     -460.13816      0             -380.17451     -9.5222994    
SHAKE stats (type/ave/delta/count) on step 6870000
Bond:   1   1         1.6497e-06      2000
Angle:  1   109.47    0.000123913     1000
   6870000   57.250713     -457.92564      0             -379.19454     -3.5228702    
SHAKE stats (type/ave/delta/count) on step 6880000
Bond:   1   1         1.23818e-06     2000
Angle:  1   109.47    9.78614e-05     1000
   6880000   58.829494     -459.13741      0             -378.23517     -7.4308378    
SHAKE stats (type/ave/delta/count) on step 6890000
Bond:   1   1         1.42746e-06     2000
Angle:  1   109.47    0.000131179     1000
   6890000   54.9466       -458.5432       0             -382.98071     -2.7661609    
SHAKE stats (type/ave/delta/count) on step 6900000
Bond:   1   1         9.7768e-07      2000
Angle:  1   109.47    9.73247e-05     1000
   6900000   57.730186     -460.81493      0             -381.42445     -4.7962375    
SHAKE stats (type/ave/delta/count) on step 6910000
Bond:   1   1         1.27787e-06     2000
Angle:  1   109.47    0.000105947     1000
   6910000   55.458821     -461.94373      0             -385.67683     -5.6441095    
SHAKE stats (type/ave/delta/count) on step 6920000
Bond:   1   1         1.60871e-06     2000
Angle:  1   109.47    0.000141984     1000
   6920000   55.226501     -459.72365      0             -383.77624     -9.0508014    
SHAKE stats (type/ave/delta/count) on step 6930000
Bond:   1   1         1.57747e-06     2000
Angle:  1   109.47    0.000105494     1000
   6930000   57.765496     -461.87019      0             -382.43116     -2.1252724    
SHAKE stats (type/ave/delta/count) on step 6940000
Bond:   1   1         1.37844e-06     2000
Angle:  1   109.47    0.000127267     1000
   6940000   55.860754     -459.11918      0             -382.29954     -1.7162755    
SHAKE stats (type/ave/delta/count) on step 6950000
Bond:   1   1         1.00219e-06     2000
Angle:  1   109.47    8.63514e-05     1000
   6950000   55.761906     -460.12857      0             -383.44487     -5.4718607    
SHAKE stats (type/ave/delta/count) on step 6960000
Bond:   1   1         1.00075e-06     2000
Angle:  1   109.47    8.9425e-05      1000
   6960000   55.902097     -454.36812      0             -377.49163     -8.5542853    
SHAKE stats (type/ave/delta/count) on step 6970000
Bond:   1   1         1.06097e-06     2000
Angle:  1   109.47    8.93219e-05     1000
   6970000   55.213849     -457.17669      0             -381.24668     -4.5151048    
SHAKE stats (type/ave/delta/count) on step 6980000
Bond:   1   1         1.64464e-06     2000
Angle:  1   109.47    0.000125179     1000
   6980000   55.312611     -452.93362      0             -376.86779     -8.216111     
SHAKE stats (type/ave/delta/count) on step 6990000
Bond:   1   1         1.50157e-06     2000
Angle:  1   109.47    0.00013921      1000
   6990000   56.43789      -457.9602       0             -380.34689     -0.30868054   
SHAKE stats (type/ave/delta/count) on step 7000000
Bond:   1   1         1.4011e-06      2000
Angle:  1   109.47    0.000106645     1000
   7000000   56.200085     -458.84724      0             -381.56095     -2.4217864    
SHAKE stats (type/ave/delta/count) on step 7010000
Bond:   1   1         1.71238e-06     2000
Angle:  1   109.47    0.000134257     1000
   7010000   57.25443      -461.48872      0             -382.75251     -1.8813407    
SHAKE stats (type/ave/delta/count) on step 7020000
Bond:   1   1         1.19581e-06     2000
Angle:  1   109.47    0.000121038     1000
   7020000   57.75442      -455.77211      0             -376.34831     -3.5393441    
SHAKE stats (type/ave/delta/count) on step 7030000
Bond:   1   1         1.16061e-06     2000
Angle:  1   109.47    9.51924e-05     1000
   7030000   57.087726     -460.00129      0             -381.49433     -7.2885911    
SHAKE stats (type/ave/delta/count) on step 7040000
Bond:   1   1         1.0123e-06      2000
Angle:  1   109.47    8.54423e-05     1000
   7040000   56.744096     -459.81556      0             -381.78115     -6.0635891    
SHAKE stats (type/ave/delta/count) on step 7050000
Bond:   1   1         1.2079e-06      2000
Angle:  1   109.47    0.000103605     1000
   7050000   55.620822     -460.56702      0             -384.07734     -5.3236895    
SHAKE stats (type/ave/delta/count) on step 7060000
Bond:   1   1         1.29308e-06     2000
Angle:  1   109.47    0.00010951      1000
   7060000   57.231785     -458.81892      0             -380.11385     -14.249871    
SHAKE stats (type/ave/delta/count) on step 7070000
Bond:   1   1         1.44103e-06     2000
Angle:  1   109.47    0.000108905     1000
   7070000   57.671176     -454.09883      0             -374.7895      -6.9120704    
SHAKE stats (type/ave/delta/count) on step 7080000
Bond:   1   1         1.29291e-06     2000
Angle:  1   109.47    0.000102844     1000
   7080000   55.614144     -457.54549      0             -381.06499     -3.0441205    
SHAKE stats (type/ave/delta/count) on step 7090000
Bond:   1   1         1.44292e-06     2000
Angle:  1   109.47    0.00012927      1000
   7090000   56.88432      -458.03864      0             -379.8114       1.7431235    
SHAKE stats (type/ave/delta/count) on step 7100000
Bond:   1   1         1.25281e-06     2000
Angle:  1   109.47    9.79523e-05     1000
   7100000   57.67703      -460.79522      0             -381.47784      0.42147055   
SHAKE stats (type/ave/delta/count) on step 7110000
Bond:   1   1         1.14201e-06     2000
Angle:  1   109.47    0.000122186     1000
   7110000   57.428076     -460.82929      0             -381.85427     -7.62492      
SHAKE stats (type/ave/delta/count) on step 7120000
Bond:   1   1         1.38573e-06     2000
Angle:  1   109.47    9.9126e-05      1000
   7120000   55.336817     -460.1449       0             -384.04578     -2.7464134    
SHAKE stats (type/ave/delta/count) on step 7130000
Bond:   1   1         1.17375e-06     2000
Angle:  1   109.47    0.000110776     1000
   7130000   57.075689     -459.33158      0             -380.84117      0.20252788   
SHAKE stats (type/ave/delta/count) on step 7140000
Bond:   1   1         1.0501e-06      2000
Angle:  1   109.47    8.83558e-05     1000
   7140000   57.62612      -459.05396      0             -379.8066      -0.57253206   
SHAKE stats (type/ave/delta/count) on step 7150000
Bond:   1   1         1.40905e-06     2000
Angle:  1   109.47    0.000116876     1000
   7150000   58.493334     -461.24642      0             -380.80647      1.7617796    
SHAKE stats (type/ave/delta/count) on step 7160000
Bond:   1   1         1.33829e-06     2000
Angle:  1   109.47    9.31719e-05     1000
   7160000   58.12926      -458.30345      0             -378.36417      0.99032598   
SHAKE stats (type/ave/delta/count) on step 7170000
Bond:   1   1         1.0184e-06      2000
Angle:  1   109.47    9.82654e-05     1000
   7170000   57.092421     -457.02152      0             -378.50809     -2.3342306    
SHAKE stats (type/ave/delta/count) on step 7180000
Bond:   1   1         1.47494e-06     2000
Angle:  1   109.47    0.000112535     1000
   7180000   57.391466     -456.44765      0             -377.52298     -1.9289242    
SHAKE stats (type/ave/delta/count) on step 7190000
Bond:   1   1         1.14321e-06     2000
Angle:  1   109.47    9.24044e-05     1000
   7190000   57.060774     -456.92193      0             -378.45202      0.35458457   
SHAKE stats (type/ave/delta/count) on step 7200000
Bond:   1   1         1.3275e-06      2000
Angle:  1   109.47    0.000112361     1000
   7200000   55.348277     -460.13706      0             -384.02218     -4.5603712    
SHAKE stats (type/ave/delta/count) on step 7210000
Bond:   1   1         1.63898e-06     2000
Angle:  1   109.47    0.000145124     1000
   7210000   57.479927     -457.17759      0             -378.13127     -0.82036494   
SHAKE stats (type/ave/delta/count) on step 7220000
Bond:   1   1         9.79143e-07     2000
Angle:  1   109.47    9.61368e-05     1000
   7220000   55.912093     -461.97714      0             -385.0869      -4.3722482    
SHAKE stats (type/ave/delta/count) on step 7230000
Bond:   1   1         1.20397e-06     2000
Angle:  1   109.47    0.000106423     1000
   7230000   57.217397     -457.76786      0             -379.08257      0.55022592   
SHAKE stats (type/ave/delta/count) on step 7240000
Bond:   1   1         1.80704e-06     2000
Angle:  1   109.47    0.000144859     1000
   7240000   56.249447     -461.19365      0             -383.83948     -2.6905396    
SHAKE stats (type/ave/delta/count) on step 7250000
Bond:   1   1         1.08769e-06     2000
Angle:  1   109.47    9.00627e-05     1000
   7250000   56.376403     -457.33712      0             -379.80836     -1.8074303    
SHAKE stats (type/ave/delta/count) on step 7260000
Bond:   1   1         1.25719e-06     2000
Angle:  1   109.47    8.99448e-05     1000
   7260000   57.969464     -458.35107      0             -378.63154     -0.4257897    
SHAKE stats (type/ave/delta/count) on step 7270000
Bond:   1   1         1.14912e-06     2000
Angle:  1   109.47    8.69747e-05     1000
   7270000   55.643142     -459.13933      0             -382.61895      0.76321517   
SHAKE stats (type/ave/delta/count) on step 7280000
Bond:   1   1         1.69368e-06     2000
Angle:  1   109.47    0.000150633     1000
   7280000   55.079647     -456.15434      0             -380.40889     -5.9289221    
SHAKE stats (type/ave/delta/count) on step 7290000
Bond:   1   1         1.20319e-06     2000
Angle:  1   109.47    0.000101947     1000
   7290000   56.650787     -458.44837      0             -380.54229     -2.0404851    
SHAKE stats (type/ave/delta/count) on step 7300000
Bond:   1   1         9.30084e-07     2000
Angle:  1   109.47    8.97553e-05     1000
   7300000   56.648104     -459.54203      0             -381.63963     -2.0487218    
SHAKE stats (type/ave/delta/count) on step 7310000
Bond:   1   1         1.94615e-06     2000
Angle:  1   109.47    0.000139857     1000
   7310000   54.945478     -457.32511      0             -381.76416      0.9652852    
SHAKE stats (type/ave/delta/count) on step 7320000
Bond:   1   1         1.0347e-06      2000
Angle:  1   109.47    0.000113874     1000
   7320000   57.103862     -460.79509      0             -382.26593     -2.4618065    
SHAKE stats (type/ave/delta/count) on step 7330000
Bond:   1   1         1.08314e-06     2000
Angle:  1   109.47    9.52683e-05     1000
   7330000   56.100113     -457.67654      0             -380.52774     -1.955396     
SHAKE stats (type/ave/delta/count) on step 7340000
Bond:   1   1         1.29998e-06     2000
Angle:  1   109.47    0.000106774     1000
   7340000   55.52794      -457.05199      0             -380.69004     -5.4464907    
SHAKE stats (type/ave/delta/count) on step 7350000
Bond:   1   1         1.65385e-06     2000
Angle:  1   109.47    0.000118471     1000
   7350000   58.235686     -457.30323      0             -377.21759      6.2728371    
SHAKE stats (type/ave/delta/count) on step 7360000
Bond:   1   1         1.456e-06       2000
Angle:  1   109.47    0.000123164     1000
   7360000   56.394358     -462.94919      0             -385.39574      1.704107     
SHAKE stats (type/ave/delta/count) on step 7370000
Bond:   1   1         1.14489e-06     2000
Angle:  1   109.47    8.67892e-05     1000
   7370000   54.987413     -461.79355      0             -386.17494     -4.8971898    
SHAKE stats (type/ave/delta/count) on step 7380000
Bond:   1   1         1.35363e-06     2000
Angle:  1   109.47    0.000115605     1000
   7380000   57.792321     -457.3661       0             -377.89017     -2.1681641    
SHAKE stats (type/ave/delta/count) on step 7390000
Bond:   1   1         1.37688e-06     2000
Angle:  1   109.47    9.65487e-05     1000
   7390000   56.575354     -458.06475      0             -380.2624      -7.1132659    
SHAKE stats (type/ave/delta/count) on step 7400000
Bond:   1   1         1.14468e-06     2000
Angle:  1   109.47    9.1963e-05      1000
   7400000   56.418515     -455.7996       0             -378.21294     -0.50317286   
SHAKE stats (type/ave/delta/count) on step 7410000
Bond:   1   1         1.12176e-06     2000
Angle:  1   109.47    9.65779e-05     1000
   7410000   56.771057     -458.64625      0             -380.57477     -0.20413972   
SHAKE stats (type/ave/delta/count) on step 7420000
Bond:   1   1         1.03048e-06     2000
Angle:  1   109.47    8.87471e-05     1000
   7420000   54.921892     -456.70195      0             -381.17344     -1.8528594    
SHAKE stats (type/ave/delta/count) on step 7430000
Bond:   1   1         1.48487e-06     2000
Angle:  1   109.47    0.000108146     1000
   7430000   57.163071     -457.81767      0             -379.20709     -2.231874     
SHAKE stats (type/ave/delta/count) on step 7440000
Bond:   1   1         9.73578e-07     2000
Angle:  1   109.47    8.8917e-05      1000
   7440000   56.266402     -455.42125      0             -378.04377     -5.2413111    
SHAKE stats (type/ave/delta/count) on step 7450000
Bond:   1   1         1.62433e-06     2000
Angle:  1   109.47    0.00010685      1000
   7450000   57.198252     -458.32054      0             -379.66158     -1.1798159    
SHAKE stats (type/ave/delta/count) on step 7460000
Bond:   1   1         1.46795e-06     2000
Angle:  1   109.47    0.000136164     1000
   7460000   56.447861     -459.24909      0             -381.62207     -4.5261226    
SHAKE stats (type/ave/delta/count) on step 7470000
Bond:   1   1         1.66589e-06     2000
Angle:  1   109.47    0.00011388      1000
   7470000   55.334323     -460.6507       0             -384.55501     -2.6034818    
SHAKE stats (type/ave/delta/count) on step 7480000
Bond:   1   1         1.08245e-06     2000
Angle:  1   109.47    8.78608e-05     1000
   7480000   55.841168     -458.76158      0             -381.96888     -4.9865761    
SHAKE stats (type/ave/delta/count) on step 7490000
Bond:   1   1         1.11892e-06     2000
Angle:  1   109.47    8.34524e-05     1000
   7490000   56.702775     -460.97481      0             -382.99723     -3.9180951    
SHAKE stats (type/ave/delta/count) on step 7500000
Bond:   1   1         1.52882e-06     2000
Angle:  1   109.47    8.90022e-05     1000
   7500000   56.047076     -457.45832      0             -380.38246     -4.1555427    
SHAKE stats (type/ave/delta/count) on step 7510000
Bond:   1   1         1.08012e-06     2000
Angle:  1   109.47    9.10845e-05     1000
   7510000   55.912377     -460.84845      0             -383.95782     -2.0249668    
SHAKE stats (type/ave/delta/count) on step 7520000
Bond:   1   1         1.72211e-06     2000
Angle:  1   109.47    0.000127        1000
   7520000   53.738464     -456.46318      0             -382.56212     -1.9691069    
SHAKE stats (type/ave/delta/count) on step 7530000
Bond:   1   1         1.22206e-06     2000
Angle:  1   109.47    8.82173e-05     1000
   7530000   57.545259     -464.6611       0             -385.52493     -9.1547644    
SHAKE stats (type/ave/delta/count) on step 7540000
Bond:   1   1         1.71692e-06     2000
Angle:  1   109.47    0.000118048     1000
   7540000   56.419959     -459.81349      0             -382.22484      0.041712547  
SHAKE stats (type/ave/delta/count) on step 7550000
Bond:   1   1         1.60709e-06     2000
Angle:  1   109.47    0.000108488     1000
   7550000   56.725914     -456.87992      0             -378.87051     -1.2077031    
SHAKE stats (type/ave/delta/count) on step 7560000
Bond:   1   1         1.25785e-06     2000
Angle:  1   109.47    8.60688e-05     1000
   7560000   56.053608     -462.70906      0             -385.62422      2.1557088    
SHAKE stats (type/ave/delta/count) on step 7570000
Bond:   1   1         1.08751e-06     2000
Angle:  1   109.47    8.76517e-05     1000
   7570000   55.748436     -461.56098      0             -384.89581     -0.95907557   
SHAKE stats (type/ave/delta/count) on step 7580000
Bond:   1   1         1.69902e-06     2000
Angle:  1   109.47    0.000137178     1000
   7580000   56.955775     -456.67011      0             -378.3446      -3.8276546    
SHAKE stats (type/ave/delta/count) on step 7590000
Bond:   1   1         1.07312e-06     2000
Angle:  1   109.47    9.19753e-05     1000
   7590000   56.372294     -462.13359      0             -384.61049     -5.0026523    
SHAKE stats (type/ave/delta/count) on step 7600000
Bond:   1   1         1.0053e-06      2000
Angle:  1   109.47    9.87499e-05     1000
   7600000   58.146809     -460.98393      0             -381.02051     -1.9129184    
SHAKE stats (type/ave/delta/count) on step 7610000
Bond:   1   1         1.09182e-06     2000
Angle:  1   109.47    8.8616e-05      1000
   7610000   56.682605     -457.42973      0             -379.47989     -5.0270166    
SHAKE stats (type/ave/delta/count) on step 7620000
Bond:   1   1         1.30672e-06     2000
Angle:  1   109.47    0.000117926     1000
   7620000   57.112661     -456.56623      0             -378.02497     -5.7481515    
SHAKE stats (type/ave/delta/count) on step 7630000
Bond:   1   1         1.26001e-06     2000
Angle:  1   109.47    8.87382e-05     1000
   7630000   57.428178     -466.35867      0             -387.38352     -7.4847042    
SHAKE stats (type/ave/delta/count) on step 7640000
Bond:   1   1         1.29217e-06     2000
Angle:  1   109.47    0.000115254     1000
   7640000   57.896029     -461.39363      0             -381.77509      1.5960984    
SHAKE stats (type/ave/delta/count) on step 7650000
Bond:   1   1         1.57548e-06     2000
Angle:  1   109.47    0.000111736     1000
   7650000   58.079381     -461.31848      0             -381.44779     -1.3408069    
SHAKE stats (type/ave/delta/count) on step 7660000
Bond:   1   1         1.38884e-06     2000
Angle:  1   109.47    0.000102281     1000
   7660000   57.019294     -455.89148      0             -377.47862     -2.2768089    
SHAKE stats (type/ave/delta/count) on step 7670000
Bond:   1   1         1.20505e-06     2000
Angle:  1   109.47    9.52193e-05     1000
   7670000   58.174634     -461.39828      0             -381.3966      -0.9588956    
SHAKE stats (type/ave/delta/count) on step 7680000
Bond:   1   1         1.11518e-06     2000
Angle:  1   109.47    0.000120225     1000
   7680000   56.758317     -458.62557      0             -380.57161     -7.0576071    
SHAKE stats (type/ave/delta/count) on step 7690000
Bond:   1   1         1.53257e-06     2000
Angle:  1   109.47    0.000103088     1000
   7690000   55.741435     -459.80863      0             -383.15309     -3.6193197    
SHAKE stats (type/ave/delta/count) on step 7700000
Bond:   1   1         1.23411e-06     2000
Angle:  1   109.47    9.38495e-05     1000
   7700000   57.735238     -461.9332       0             -382.53578     -7.4837967    
SHAKE stats (type/ave/delta/count) on step 7710000
Bond:   1   1         9.90447e-07     2000
Angle:  1   109.47    9.23631e-05     1000
   7710000   56.819084     -458.49772      0             -380.36019     -8.1195032    
SHAKE stats (type/ave/delta/count) on step 7720000
Bond:   1   1         1.41221e-06     2000
Angle:  1   109.47    9.1816e-05      1000
   7720000   55.807916     -462.16391      0             -385.41694     -0.88564343   
SHAKE stats (type/ave/delta/count) on step 7730000
Bond:   1   1         1.35544e-06     2000
Angle:  1   109.47    0.000132723     1000
   7730000   56.917746     -460.52726      0             -382.25405     -5.433503     
SHAKE stats (type/ave/delta/count) on step 7740000
Bond:   1   1         1.17657e-06     2000
Angle:  1   109.47    0.000100498     1000
   7740000   55.862865     -461.92591      0             -385.10338     -4.2637051    
SHAKE stats (type/ave/delta/count) on step 7750000
Bond:   1   1         1.07958e-06     2000
Angle:  1   109.47    0.000108993     1000
   7750000   56.448787     -457.96532      0             -380.33702     -5.1706579    
SHAKE stats (type/ave/delta/count) on step 7760000
Bond:   1   1         1.33944e-06     2000
Angle:  1   109.47    0.000114884     1000
   7760000   57.183191     -458.08818      0             -379.44993     -0.13353946   
SHAKE stats (type/ave/delta/count) on step 7770000
Bond:   1   1         2.21635e-06     2000
Angle:  1   109.47    0.000164809     1000
   7770000   56.852346     -454.80534      0             -376.62206     -8.2952291    
SHAKE stats (type/ave/delta/count) on step 7780000
Bond:   1   1         1.1618e-06      2000
Angle:  1   109.47    9.08208e-05     1000
   7780000   56.042929     -459.26959      0             -382.19943      1.9787197    
SHAKE stats (type/ave/delta/count) on step 7790000
Bond:   1   1         1.31358e-06     2000
Angle:  1   109.47    9.76946e-05     1000
   7790000   56.568288     -462.17844      0             -384.3858      -0.99605334   
SHAKE stats (type/ave/delta/count) on step 7800000
Bond:   1   1         1.19293e-06     2000
Angle:  1   109.47    0.000113286     1000
   7800000   56.4701       -464.24764      0             -386.59004     -1.7379782    
SHAKE stats (type/ave/delta/count) on step 7810000
Bond:   1   1         1.08745e-06     2000
Angle:  1   109.47    8.74188e-05     1000
   7810000   55.714832     -460.27394      0             -383.65498      0.50198202   
SHAKE stats (type/ave/delta/count) on step 7820000
Bond:   1   1         1.36819e-06     2000
Angle:  1   109.47    0.000110944     1000
   7820000   55.398137     -458.645        0             -382.46156     -5.6454911    
SHAKE stats (type/ave/delta/count) on step 7830000
Bond:   1   1         1.15493e-06     2000
Angle:  1   109.47    9.59231e-05     1000
   7830000   55.639886     -460.84792      0             -384.33202     -8.1984384    
SHAKE stats (type/ave/delta/count) on step 7840000
Bond:   1   1         1.12639e-06     2000
Angle:  1   109.47    8.27832e-05     1000
   7840000   55.528999     -457.48956      0             -381.12616      1.4266075    
SHAKE stats (type/ave/delta/count) on step 7850000
Bond:   1   1         1.22358e-06     2000
Angle:  1   109.47    9.87029e-05     1000
   7850000   56.540403     -458.52304      0             -380.76875     -0.50037254   
SHAKE stats (type/ave/delta/count) on step 7860000
Bond:   1   1         1.5552e-06      2000
Angle:  1   109.47    0.000116743     1000
   7860000   57.135072     -457.9567       0             -379.38463     -4.058834     
SHAKE stats (type/ave/delta/count) on step 7870000
Bond:   1   1         1.20213e-06     2000
Angle:  1   109.47    8.60601e-05     1000
   7870000   57.556492     -457.20889      0             -378.05728     -1.007363     
SHAKE stats (type/ave/delta/count) on step 7880000
Bond:   1   1         1.44379e-06     2000
Angle:  1   109.47    0.00010756      1000
   7880000   54.12053      -457.0228       0             -382.59631     -5.17489      
SHAKE stats (type/ave/delta/count) on step 7890000
Bond:   1   1         1.06031e-06     2000
Angle:  1   109.47    9.35473e-05     1000
   7890000   56.514629     -460.64783      0             -382.92899     -4.6592612    
SHAKE stats (type/ave/delta/count) on step 7900000
Bond:   1   1         1.08714e-06     2000
Angle:  1   109.47    8.80223e-05     1000
   7900000   56.916186     -460.64725      0             -382.37619     -1.0899776    
SHAKE stats (type/ave/delta/count) on step 7910000
Bond:   1   1         1.38148e-06     2000
Angle:  1   109.47    0.000124954     1000
   7910000   54.427626     -460.87824      0             -386.02944     -5.248397     
SHAKE stats (type/ave/delta/count) on step 7920000
Bond:   1   1         1.04565e-06     2000
Angle:  1   109.47    8.82627e-05     1000
   7920000   56.120782     -457.32697      0             -380.14974     -4.7008518    
SHAKE stats (type/ave/delta/count) on step 7930000
Bond:   1   1         1.24598e-06     2000
Angle:  1   109.47    9.12183e-05     1000
   7930000   54.572779     -461.2859       0             -386.23749     -9.974787     
SHAKE stats (type/ave/delta/count) on step 7940000
Bond:   1   1         1.92988e-06     2000
Angle:  1   109.47    0.000137575     1000
   7940000   55.327587     -461.5356       0             -385.44918      0.65907608   
SHAKE stats (type/ave/delta/count) on step 7950000
Bond:   1   1         1.08931e-06     2000
Angle:  1   109.47    8.99176e-05     1000
   7950000   56.579211     -461.83676      0             -384.0291      -1.1561685    
SHAKE stats (type/ave/delta/count) on step 7960000
Bond:   1   1         1.13038e-06     2000
Angle:  1   109.47    0.000105874     1000
   7960000   54.559339     -458.45343      0             -383.4235      -6.3533519    
SHAKE stats (type/ave/delta/count) on step 7970000
Bond:   1   1         1.53982e-06     2000
Angle:  1   109.47    0.000114099     1000
   7970000   57.075018     -463.31092      0             -384.82143      2.9629799    
SHAKE stats (type/ave/delta/count) on step 7980000
Bond:   1   1         1.2618e-06      2000
Angle:  1   109.47    9.40246e-05     1000
   7980000   56.815483     -457.57057      0             -379.438       -9.0288654    
SHAKE stats (type/ave/delta/count) on step 7990000
Bond:   1   1         1.26737e-06     2000
Angle:  1   109.47    9.99454e-05     1000
   7990000   56.07127      -459.71846      0             -382.60932     -1.5231706    
SHAKE stats (type/ave/delta/count) on step 8000000
Bond:   1   1         1.51435e-06     2000
Angle:  1   109.47    0.000145165     1000
   8000000   55.071417     -457.91982      0             -382.18568     -6.4983545    
SHAKE stats (type/ave/delta/count) on step 8010000
Bond:   1   1         1.52798e-06     2000
Angle:  1   109.47    9.18128e-05     1000
   8010000   57.199938     -457.20765      0             -378.54637     -8.3841472    
SHAKE stats (type/ave/delta/count) on step 8020000
Bond:   1   1         1.27055e-06     2000
Angle:  1   109.47    8.71278e-05     1000
   8020000   57.17446      -459.20154      0             -380.5753      -1.9338844    
SHAKE stats (type/ave/delta/count) on step 8030000
Bond:   1   1         1.12998e-06     2000
Angle:  1   109.47    0.000107368     1000
   8030000   56.067586     -461.38465      0             -384.28058     -3.6360381    
SHAKE stats (type/ave/delta/count) on step 8040000
Bond:   1   1         1.1342e-06      2000
Angle:  1   109.47    8.82221e-05     1000
   8040000   56.136955     -459.9079       0             -382.70844     -5.9074606    
SHAKE stats (type/ave/delta/count) on step 8050000
Bond:   1   1         1.4763e-06      2000
Angle:  1   109.47    0.000115097     1000
   8050000   56.596311     -453.22227      0             -375.3911      -4.6743416    
SHAKE stats (type/ave/delta/count) on step 8060000
Bond:   1   1         1.12555e-06     2000
Angle:  1   109.47    0.000135294     1000
   8060000   58.698434     -458.29903      0             -377.57702     -0.32770852   
SHAKE stats (type/ave/delta/count) on step 8070000
Bond:   1   1         1.34638e-06     2000
Angle:  1   109.47    0.000107324     1000
   8070000   56.03102      -456.09041      0             -379.03663     -2.6994228    
SHAKE stats (type/ave/delta/count) on step 8080000
Bond:   1   1         1.07076e-06     2000
Angle:  1   109.47    0.00010852      1000
   8080000   56.48533      -461.90925      0             -384.2307      -6.7453653    
SHAKE stats (type/ave/delta/count) on step 8090000
Bond:   1   1         1.22406e-06     2000
Angle:  1   109.47    0.000121457     1000
   8090000   56.2468       -459.53761      0             -382.18709     -5.5858304    
SHAKE stats (type/ave/delta/count) on step 8100000
Bond:   1   1         1.20093e-06     2000
Angle:  1   109.47    8.57514e-05     1000
   8100000   56.883662     -462.47203      0             -384.2457      -3.7019071    
SHAKE stats (type/ave/delta/count) on step 8110000
Bond:   1   1         1.0243e-06      2000
Angle:  1   109.47    8.95521e-05     1000
   8110000   56.876828     -456.72438      0             -378.50744     -2.2004549    
SHAKE stats (type/ave/delta/count) on step 8120000
Bond:   1   1         1.07585e-06     2000
Angle:  1   109.47    8.9163e-05      1000
   8120000   56.722231     -461.16382      0             -383.15948     -2.4549976    
SHAKE stats (type/ave/delta/count) on step 8130000
Bond:   1   1         1.47573e-06     2000
Angle:  1   109.47    0.000100079     1000
   8130000   56.779201     -458.10996      0             -380.02728     -4.2406541    
SHAKE stats (type/ave/delta/count) on step 8140000
Bond:   1   1         9.90501e-07     2000
Angle:  1   109.47    9.08971e-05     1000
   8140000   57.200001     -462.00783      0             -383.34647     -10.165938    
SHAKE stats (type/ave/delta/count) on step 8150000
Bond:   1   1         1.23208e-06     2000
Angle:  1   109.47    9.66446e-05     1000
   8150000   55.976999     -459.55565      0             -382.57615     -5.0723971    
SHAKE stats (type/ave/delta/count) on step 8160000
Bond:   1   1         1.15756e-06     2000
Angle:  1   109.47    9.27461e-05     1000
   8160000   57.475533     -460.58268      0             -381.5424      -2.7985591    
SHAKE stats (type/ave/delta/count) on step 8170000
Bond:   1   1         1.4521e-06      2000
Angle:  1   109.47    0.00012191      1000
   8170000   55.724844     -460.1045       0             -383.47177     -5.3573948    
SHAKE stats (type/ave/delta/count) on step 8180000
Bond:   1   1         1.01396e-06     2000
Angle:  1   109.47    0.000103753     1000
   8180000   57.490691     -457.68868      0             -378.62756     -0.12143611   
SHAKE stats (type/ave/delta/count) on step 8190000
Bond:   1   1         1.02921e-06     2000
Angle:  1   109.47    9.13124e-05     1000
   8190000   57.18677      -457.50176      0             -378.85859     -2.6155644    
SHAKE stats (type/ave/delta/count) on step 8200000
Bond:   1   1         1.11348e-06     2000
Angle:  1   109.47    9.12204e-05     1000
   8200000   55.431673     -461.02722      0             -384.79766     -6.6678058    
SHAKE stats (type/ave/delta/count) on step 8210000
Bond:   1   1         1.37823e-06     2000
Angle:  1   109.47    0.000113853     1000
   8210000   56.353948     -461.02698      0             -383.5291      -3.2126662    
SHAKE stats (type/ave/delta/count) on step 8220000
Bond:   1   1         1.11098e-06     2000
Angle:  1   109.47    0.000101601     1000
   8220000   55.872218     -462.97592      0             -386.14052      0.16665045   
SHAKE stats (type/ave/delta/count) on step 8230000
Bond:   1   1         1.62457e-06     2000
Angle:  1   109.47    0.000100182     1000
   8230000   57.676995     -460.21842      0             -380.9011      -7.1437946    
SHAKE stats (type/ave/delta/count) on step 8240000
Bond:   1   1         1.46528e-06     2000
Angle:  1   109.47    0.000112039     1000
   8240000   57.90567      -457.18642      0             -377.55462     -3.5142418    
SHAKE stats (type/ave/delta/count) on step 8250000
Bond:   1   1         1.26855e-06     2000
Angle:  1   109.47    9.36541e-05     1000
   8250000   55.524746     -457.00354      0             -380.64598     -2.1792761    
SHAKE stats (type/ave/delta/count) on step 8260000
Bond:   1   1         1.11683e-06     2000
Angle:  1   109.47    9.89784e-05     1000
   8260000   57.223741     -455.16774      0             -376.47373      4.4553062    
SHAKE stats (type/ave/delta/count) on step 8270000
Bond:   1   1         1.45065e-06     2000
Angle:  1   109.47    0.000123463     1000
   8270000   57.060044     -457.03288      0             -378.56399     -4.3276687    
SHAKE stats (type/ave/delta/count) on step 8280000
Bond:   1   1         1.19372e-06     2000
Angle:  1   109.47    9.02334e-05     1000
   8280000   58.572379     -457.28757      0             -376.73891     -7.5737737    
SHAKE stats (type/ave/delta/count) on step 8290000
Bond:   1   1         1.00875e-06     2000
Angle:  1   109.47    9.7546e-05      1000
   8290000   56.60996      -464.85191      0             -387.00197     -4.3600289    
SHAKE stats (type/ave/delta/count) on step 8300000
Bond:   1   1         1.40118e-06     2000
Angle:  1   109.47    0.00010487      1000
   8300000   57.35369      -457.85889      0             -378.98617     -8.5108358    
SHAKE stats (type/ave/delta/count) on step 8310000
Bond:   1   1         1.23894e-06     2000
Angle:  1   109.47    9.62671e-05     1000
   8310000   54.563036     -460.43977      0             -385.40476     -4.632762     
SHAKE stats (type/ave/delta/count) on step 8320000
Bond:   1   1         1.3196e-06      2000
Angle:  1   109.47    0.000105644     1000
   8320000   53.822204     -461.11514      0             -387.09892      0.50876715   
SHAKE stats (type/ave/delta/count) on step 8330000
Bond:   1   1         1.42752e-06     2000
Angle:  1   109.47    8.18359e-05     1000
   8330000   55.864387     -454.28196      0             -377.45733     -11.022759    
SHAKE stats (type/ave/delta/count) on step 8340000
Bond:   1   1         1.06713e-06     2000
Angle:  1   109.47    8.90344e-05     1000
   8340000   56.375347     -454.9016       0             -377.3743      -8.7751861    
SHAKE stats (type/ave/delta/count) on step 8350000
Bond:   1   1         1.56629e-06     2000
Angle:  1   109.47    0.000132459     1000
   8350000   57.875602     -462.98535      0             -383.3949      -1.7512685    
SHAKE stats (type/ave/delta/count) on step 8360000
Bond:   1   1         1.1697e-06      2000
Angle:  1   109.47    9.83592e-05     1000
   8360000   56.164168     -460.00454      0             -382.76765      1.7351048    
SHAKE stats (type/ave/delta/count) on step 8370000
Bond:   1   1         1.33793e-06     2000
Angle:  1   109.47    0.000138482     1000
   8370000   54.448962     -459.89944      0             -385.0213      -5.956981     
SHAKE stats (type/ave/delta/count) on step 8380000
Bond:   1   1         1.29389e-06     2000
Angle:  1   109.47    8.93395e-05     1000
   8380000   57.714039     -456.71085      0             -377.34258     -9.0262063    
SHAKE stats (type/ave/delta/count) on step 8390000
Bond:   1   1         1.21859e-06     2000
Angle:  1   109.47    0.000107082     1000
   8390000   56.158718     -457.58008      0             -380.35068     -4.7012026    
SHAKE stats (type/ave/delta/count) on step 8400000
Bond:   1   1         1.398e-06       2000
Angle:  1   109.47    9.69638e-05     1000
   8400000   56.458547     -457.81383      0             -380.17211     -6.826681     
SHAKE stats (type/ave/delta/count) on step 8410000
Bond:   1   1         1.06433e-06     2000
Angle:  1   109.47    8.96239e-05     1000
   8410000   56.077167     -456.80719      0             -379.68994      0.91439468   
SHAKE stats (type/ave/delta/count) on step 8420000
Bond:   1   1         1.22418e-06     2000
Angle:  1   109.47    0.000108201     1000
   8420000   55.126449     -460.19405      0             -384.38423     -5.2023288    
SHAKE stats (type/ave/delta/count) on step 8430000
Bond:   1   1         1.36988e-06     2000
Angle:  1   109.47    9.96756e-05     1000
   8430000   55.756054     -460.06127      0             -383.38562     -3.8460668    
SHAKE stats (type/ave/delta/count) on step 8440000
Bond:   1   1         1.37732e-06     2000
Angle:  1   109.47    9.97741e-05     1000
   8440000   54.230753     -459.11875      0             -384.54069      2.734573     
SHAKE stats (type/ave/delta/count) on step 8450000
Bond:   1   1         1.3737e-06      2000
Angle:  1   109.47    0.000112111     1000
   8450000   55.80035      -456.2631       0             -379.52653     -2.6178106    
SHAKE stats (type/ave/delta/count) on step 8460000
Bond:   1   1         1.14834e-06     2000
Angle:  1   109.47    8.21862e-05     1000
   8460000   58.298228     -458.90681      0             -378.73516     -3.0605052    
SHAKE stats (type/ave/delta/count) on step 8470000
Bond:   1   1         1.10567e-06     2000
Angle:  1   109.47    9.55389e-05     1000
   8470000   56.988572     -459.37139      0             -381.00078     -6.8848158    
SHAKE stats (type/ave/delta/count) on step 8480000
Bond:   1   1         1.41072e-06     2000
Angle:  1   109.47    0.000100748     1000
   8480000   56.051326     -459.10444      0             -382.02273      1.6781245    
SHAKE stats (type/ave/delta/count) on step 8490000
Bond:   1   1         1.52485e-06     2000
Angle:  1   109.47    0.000125221     1000
   8490000   57.114606     -460.36061      0             -381.81668     -1.2873545    
SHAKE stats (type/ave/delta/count) on step 8500000
Bond:   1   1         1.51171e-06     2000
Angle:  1   109.47    0.000133579     1000
   8500000   55.823113     -462.8927       0             -386.12483      0.036403842  
SHAKE stats (type/ave/delta/count) on step 8510000
Bond:   1   1         1.17209e-06     2000
Angle:  1   109.47    0.000101752     1000
   8510000   55.443854     -458.9508       0             -382.70449      2.2182702    
SHAKE stats (type/ave/delta/count) on step 8520000
Bond:   1   1         1.06123e-06     2000
Angle:  1   109.47    9.02586e-05     1000
   8520000   54.855993     -460.92237      0             -385.48448     -0.53942318   
SHAKE stats (type/ave/delta/count) on step 8530000
Bond:   1   1         1.3276e-06      2000
Angle:  1   109.47    0.00010756      1000
   8530000   55.361825     -458.75375      0             -382.62024     -3.0237712    
SHAKE stats (type/ave/delta/count) on step 8540000
Bond:   1   1         1.10719e-06     2000
Angle:  1   109.47    9.35286e-05     1000
   8540000   56.239866     -455.9389       0             -378.59791     -0.62217103   
SHAKE stats (type/ave/delta/count) on step 8550000
Bond:   1   1         1.17324e-06     2000
Angle:  1   109.47    9.38977e-05     1000
   8550000   56.670791     -460.79188      0             -382.85829     -1.6700633    
SHAKE stats (type/ave/delta/count) on step 8560000
Bond:   1   1         9.9451e-07      2000
Angle:  1   109.47    8.70398e-05     1000
   8560000   58.299784     -456.60498      0             -376.43119     -1.186105     
SHAKE stats (type/ave/delta/count) on step 8570000
Bond:   1   1         1.25101e-06     2000
Angle:  1   109.47    0.000119149     1000
   8570000   55.854352     -461.95405      0             -385.14322     -1.9019482    
SHAKE stats (type/ave/delta/count) on step 8580000
Bond:   1   1         1.37749e-06     2000
Angle:  1   109.47    8.6866e-05      1000
   8580000   55.773297     -456.80417      0             -380.10481     -2.7763685    
SHAKE stats (type/ave/delta/count) on step 8590000
Bond:   1   1         1.14156e-06     2000
Angle:  1   109.47    9.93841e-05     1000
   8590000   56.900635     -461.15006      0             -382.90038      1.2125339    
SHAKE stats (type/ave/delta/count) on step 8600000
Bond:   1   1         1.09465e-06     2000
Angle:  1   109.47    9.3132e-05      1000
   8600000   56.25167      -460.25796      0             -382.90073     -10.037793    
SHAKE stats (type/ave/delta/count) on step 8610000
Bond:   1   1         1.38663e-06     2000
Angle:  1   109.47    0.000117372     1000
   8610000   55.74098      -458.63543      0             -381.98051      0.41524515   
SHAKE stats (type/ave/delta/count) on step 8620000
Bond:   1   1         1.59701e-06     2000
Angle:  1   109.47    0.000101506     1000
   8620000   55.927714     -458.00442      0             -381.0927      -0.90100881   
SHAKE stats (type/ave/delta/count) on step 8630000
Bond:   1   1         1.15945e-06     2000
Angle:  1   109.47    9.03238e-05     1000
   8630000   56.226225     -459.7728       0             -382.45057     -5.9329907    
SHAKE stats (type/ave/delta/count) on step 8640000
Bond:   1   1         1.08776e-06     2000
Angle:  1   109.47    8.96442e-05     1000
   8640000   57.643418     -454.88154      0             -375.61038     -2.2421222    
SHAKE stats (type/ave/delta/count) on step 8650000
Bond:   1   1         1.52621e-06     2000
Angle:  1   109.47    0.00010335      1000
   8650000   56.350618     -460.4606       0             -382.96731     -9.7394215    
SHAKE stats (type/ave/delta/count) on step 8660000
Bond:   1   1         1.03569e-06     2000
Angle:  1   109.47    0.000101372     1000
   8660000   56.635115     -456.71108      0             -378.82655     -12.635432    
SHAKE stats (type/ave/delta/count) on step 8670000
Bond:   1   1         1.22289e-06     2000
Angle:  1   109.47    8.99455e-05     1000
   8670000   56.920963     -460.57585      0             -382.29821     -0.23883341   
SHAKE stats (type/ave/delta/count) on step 8680000
Bond:   1   1         1.1138e-06      2000
Angle:  1   109.47    0.000130954     1000
   8680000   55.108748     -461.71528      0             -385.9298      -4.6961173    
SHAKE stats (type/ave/delta/count) on step 8690000
Bond:   1   1         1.18588e-06     2000
Angle:  1   109.47    0.000101964     1000
   8690000   57.598231     -456.2849       0             -377.07589     -8.7723643    
SHAKE stats (type/ave/delta/count) on step 8700000
Bond:   1   1         1.15814e-06     2000
Angle:  1   109.47    9.35232e-05     1000
   8700000   55.141276     -459.90916      0             -384.07895     -6.0337015    
SHAKE stats (type/ave/delta/count) on step 8710000
Bond:   1   1         1.24889e-06     2000
Angle:  1   109.47    0.000102311     1000
   8710000   55.665102     -457.96019      0             -381.40962     -9.9159147    
SHAKE stats (type/ave/delta/count) on step 8720000
Bond:   1   1         1.90192e-06     2000
Angle:  1   109.47    0.000128683     1000
   8720000   54.764486     -459.7255       0             -384.41345     -2.0649541    
SHAKE stats (type/ave/delta/count) on step 8730000
Bond:   1   1         1.75714e-06     2000
Angle:  1   109.47    0.000131222     1000
   8730000   57.958179     -456.03359      0             -376.32958     -4.9040817    
SHAKE stats (type/ave/delta/count) on step 8740000
Bond:   1   1         1.25556e-06     2000
Angle:  1   109.47    0.000104036     1000
   8740000   57.436805     -457.66067      0             -378.67365     -3.18862      
SHAKE stats (type/ave/delta/count) on step 8750000
Bond:   1   1         1.17494e-06     2000
Angle:  1   109.47    8.9648e-05      1000
   8750000   55.85852      -462.81964      0             -386.00307     -1.7987855    
SHAKE stats (type/ave/delta/count) on step 8760000
Bond:   1   1         2.03237e-06     2000
Angle:  1   109.47    0.000149887     1000
   8760000   57.289274     -456.99322      0             -378.20909     -4.8943831    
SHAKE stats (type/ave/delta/count) on step 8770000
Bond:   1   1         1.16028e-06     2000
Angle:  1   109.47    9.03837e-05     1000
   8770000   57.60288      -455.37948      0             -376.16408      0.35181497   
SHAKE stats (type/ave/delta/count) on step 8780000
Bond:   1   1         1.19387e-06     2000
Angle:  1   109.47    0.000109761     1000
   8780000   56.419368     -455.65142      0             -378.06358     -11.430192    
SHAKE stats (type/ave/delta/count) on step 8790000
Bond:   1   1         1.64242e-06     2000
Angle:  1   109.47    0.000133459     1000
   8790000   56.641141     -461.27299      0             -383.38017     -5.1759144    
SHAKE stats (type/ave/delta/count) on step 8800000
Bond:   1   1         1.11438e-06     2000
Angle:  1   109.47    8.74708e-05     1000
   8800000   54.470164     -460.10348      0             -385.19618     -8.9579072    
SHAKE stats (type/ave/delta/count) on step 8810000
Bond:   1   1         1.68926e-06     2000
Angle:  1   109.47    0.000127319     1000
   8810000   55.044881     -459.18922      0             -383.49157      1.3901553    
SHAKE stats (type/ave/delta/count) on step 8820000
Bond:   1   1         1.03536e-06     2000
Angle:  1   109.47    0.000119881     1000
   8820000   56.935763     -454.79587      0             -376.49788      1.3536357    
SHAKE stats (type/ave/delta/count) on step 8830000
Bond:   1   1         1.04911e-06     2000
Angle:  1   109.47    9.40538e-05     1000
   8830000   57.047107     -457.73756      0             -379.28645      0.71295366   
SHAKE stats (type/ave/delta/count) on step 8840000
Bond:   1   1         1.23213e-06     2000
Angle:  1   109.47    9.886e-05       1000
   8840000   57.724125     -460.52797      0             -381.14583     -5.718356     
SHAKE stats (type/ave/delta/count) on step 8850000
Bond:   1   1         1.728e-06       2000
Angle:  1   109.47    0.000133635     1000
   8850000   55.657015     -461.21884      0             -384.67938     -10.934379    
SHAKE stats (type/ave/delta/count) on step 8860000
Bond:   1   1         1.55455e-06     2000
Angle:  1   109.47    0.000137309     1000
   8860000   54.083018     -461.65995      0             -387.28506     -6.2985813    
SHAKE stats (type/ave/delta/count) on step 8870000
Bond:   1   1         1.18428e-06     2000
Angle:  1   109.47    9.86709e-05     1000
   8870000   55.060731     -457.85473      0             -382.13529     -2.6431022    
SHAKE stats (type/ave/delta/count) on step 8880000
Bond:   1   1         1.50645e-06     2000
Angle:  1   109.47    0.000113408     1000
   8880000   57.23178      -458.37198      0             -379.66691     -3.1417336    
SHAKE stats (type/ave/delta/count) on step 8890000
Bond:   1   1         1.31345e-06     2000
Angle:  1   109.47    0.000129832     1000
   8890000   56.114395     -460.79351      0             -383.62507     -7.526655     
SHAKE stats (type/ave/delta/count) on step 8900000
Bond:   1   1         1.21896e-06     2000
Angle:  1   109.47    0.000111845     1000
   8900000   56.399739     -457.49932      0             -379.93847     -3.375697     
SHAKE stats (type/ave/delta/count) on step 8910000
Bond:   1   1         1.71471e-06     2000
Angle:  1   109.47    0.000105808     1000
   8910000   57.321443     -460.04605      0             -381.21768      0.67165873   
SHAKE stats (type/ave/delta/count) on step 8920000
Bond:   1   1         1.77229e-06     2000
Angle:  1   109.47    0.000146097     1000
   8920000   56.808155     -460.77421      0             -382.65171      1.0633992    
SHAKE stats (type/ave/delta/count) on step 8930000
Bond:   1   1         1.10786e-06     2000
Angle:  1   109.47    9.1785e-05      1000
   8930000   58.217054     -458.71013      0             -378.65011     -3.4271978    
SHAKE stats (type/ave/delta/count) on step 8940000
Bond:   1   1         1.0641e-06      2000
Angle:  1   109.47    8.48181e-05     1000
   8940000   58.57497      -456.30456      0             -375.75234     -3.803869     
SHAKE stats (type/ave/delta/count) on step 8950000
Bond:   1   1         9.72743e-07     2000
Angle:  1   109.47    8.62234e-05     1000
   8950000   55.075477     -461.50034      0             -385.76062     -7.2710921    
SHAKE stats (type/ave/delta/count) on step 8960000
Bond:   1   1         1.02908e-06     2000
Angle:  1   109.47    8.70222e-05     1000
   8960000   54.558066     -459.6924       0             -384.66421      0.77755105   
SHAKE stats (type/ave/delta/count) on step 8970000
Bond:   1   1         1.42738e-06     2000
Angle:  1   109.47    0.000108922     1000
   8970000   58.032773     -456.63379      0             -376.82719     -3.4967458    
SHAKE stats (type/ave/delta/count) on step 8980000
Bond:   1   1         1.2564e-06      2000
Angle:  1   109.47    0.00010064      1000
   8980000   55.204044     -457.06749      0             -381.15096     -8.7429192    
SHAKE stats (type/ave/delta/count) on step 8990000
Bond:   1   1         1.43858e-06     2000
Angle:  1   109.47    0.000118955     1000
   8990000   55.172948     -459.48863      0             -383.61487     -0.78723471   
SHAKE stats (type/ave/delta/count) on step 9000000
Bond:   1   1         1.2572e-06      2000
Angle:  1   109.47    9.10079e-05     1000
   9000000   55.422726     -456.16202      0             -379.94476     -4.7768593    
SHAKE stats (type/ave/delta/count) on step 9010000
Bond:   1   1         1.21048e-06     2000
Angle:  1   109.47    0.00013522      1000
   9010000   57.75185      -453.72284      0             -374.30257      2.0973349    
SHAKE stats (type/ave/delta/count) on step 9020000
Bond:   1   1         1.19883e-06     2000
Angle:  1   109.47    0.000107744     1000
   9020000   56.46621      -457.97945      0             -380.32719     -0.11497263   
SHAKE stats (type/ave/delta/count) on step 9030000
Bond:   1   1         1.41653e-06     2000
Angle:  1   109.47    9.95309e-05     1000
   9030000   56.999984     -459.58043      0             -381.19412     -1.7918744    
SHAKE stats (type/ave/delta/count) on step 9040000
Bond:   1   1         1.22366e-06     2000
Angle:  1   109.47    9.50826e-05     1000
   9040000   56.692989     -455.91416      0             -377.95003     -2.7805131    
SHAKE stats (type/ave/delta/count) on step 9050000
Bond:   1   1         1.45179e-06     2000
Angle:  1   109.47    0.000120074     1000
   9050000   57.455969     -457.75718      0             -378.7438      -5.7364051    
SHAKE stats (type/ave/delta/count) on step 9060000
Bond:   1   1         1.27941e-06     2000
Angle:  1   109.47    9.38597e-05     1000
   9060000   54.002104     -455.3245       0             -381.06087      1.5013203    
SHAKE stats (type/ave/delta/count) on step 9070000
Bond:   1   1         1.14019e-06     2000
Angle:  1   109.47    8.77251e-05     1000
   9070000   56.660674     -458.2683       0             -380.34862     -0.30737865   
SHAKE stats (type/ave/delta/count) on step 9080000
Bond:   1   1         1.11845e-06     2000
Angle:  1   109.47    8.93668e-05     1000
   9080000   57.170868     -454.74586      0             -376.12456     -7.0172006    
SHAKE stats (type/ave/delta/count) on step 9090000
Bond:   1   1         2.13094e-06     2000
Angle:  1   109.47    0.000186462     1000
   9090000   57.192082     -457.40506      0             -378.75458      1.5659864    
SHAKE stats (type/ave/delta/count) on step 9100000
Bond:   1   1         1.16978e-06     2000
Angle:  1   109.47    9.87088e-05     1000
   9100000   56.634575     -460.65605      0             -382.77226     -5.2372587    
SHAKE stats (type/ave/delta/count) on step 9110000
Bond:   1   1         1.49559e-06     2000
Angle:  1   109.47    0.00012084      1000
   9110000   53.76031      -456.72015      0             -382.78904     -9.3420352    
SHAKE stats (type/ave/delta/count) on step 9120000
Bond:   1   1         1.49894e-06     2000
Angle:  1   109.47    0.000150229     1000
   9120000   57.555757     -458.67967      0             -379.52907     -3.0322316    
SHAKE stats (type/ave/delta/count) on step 9130000
Bond:   1   1         1.13941e-06     2000
Angle:  1   109.47    0.000103707     1000
   9130000   55.726688     -457.56394      0             -380.92867     -4.1550316    
SHAKE stats (type/ave/delta/count) on step 9140000
Bond:   1   1         1.07871e-06     2000
Angle:  1   109.47    9.54175e-05     1000
   9140000   55.784613     -460.88297      0             -384.16804     -1.9127915    
SHAKE stats (type/ave/delta/count) on step 9150000
Bond:   1   1         1.4408e-06      2000
Angle:  1   109.47    9.99009e-05     1000
   9150000   55.603215     -459.7591       0             -383.29363      3.0778184    
SHAKE stats (type/ave/delta/count) on step 9160000
Bond:   1   1         1.25168e-06     2000
Angle:  1   109.47    0.000109705     1000
   9160000   56.847543     -457.41307      0             -379.23641     -5.4621679    
SHAKE stats (type/ave/delta/count) on step 9170000
Bond:   1   1         2.31722e-06     2000
Angle:  1   109.47    0.000174886     1000
   9170000   57.628319     -460.10346      0             -380.85307     -1.5453293    
SHAKE stats (type/ave/delta/count) on step 9180000
Bond:   1   1         1.24813e-06     2000
Angle:  1   109.47    9.31912e-05     1000
   9180000   56.047941     -455.92386      0             -378.8468      -1.9500976    
SHAKE stats (type/ave/delta/count) on step 9190000
Bond:   1   1         9.62722e-07     2000
Angle:  1   109.47    9.54284e-05     1000
   9190000   57.171045     -460.40605      0             -381.78451     -8.5684737    
SHAKE stats (type/ave/delta/count) on step 9200000
Bond:   1   1         1.03588e-06     2000
Angle:  1   109.47    8.66963e-05     1000
   9200000   56.125201     -460.70167      0             -383.51837     -0.41878211   
SHAKE stats (type/ave/delta/count) on step 9210000
Bond:   1   1         1.20569e-06     2000
Angle:  1   109.47    0.000105423     1000
   9210000   56.37897      -456.18566      0             -378.65337     -7.498826     
SHAKE stats (type/ave/delta/count) on step 9220000
Bond:   1   1         1.23451e-06     2000
Angle:  1   109.47    0.000122753     1000
   9220000   57.318733     -455.96099      0             -377.13634     -2.3376788    
SHAKE stats (type/ave/delta/count) on step 9230000
Bond:   1   1         1.03199e-06     2000
Angle:  1   109.47    9.77668e-05     1000
   9230000   57.96099      -459.85732      0             -380.14944     -2.7455507    
SHAKE stats (type/ave/delta/count) on step 9240000
Bond:   1   1         1.10409e-06     2000
Angle:  1   109.47    8.38441e-05     1000
   9240000   56.011676     -456.46178      0             -379.4346      -9.5794429    
SHAKE stats (type/ave/delta/count) on step 9250000
Bond:   1   1         1.13388e-06     2000
Angle:  1   109.47    9.53312e-05     1000
   9250000   55.631405     -459.49221      0             -382.98798      2.0344736    
SHAKE stats (type/ave/delta/count) on step 9260000
Bond:   1   1         1.19403e-06     2000
Angle:  1   109.47    9.48902e-05     1000
   9260000   56.305561     -460.70052      0             -383.26919     -4.5884623    
SHAKE stats (type/ave/delta/count) on step 9270000
Bond:   1   1         1.3232e-06      2000
Angle:  1   109.47    9.44065e-05     1000
   9270000   54.710912     -458.08397      0             -382.84559     -7.8629854    
SHAKE stats (type/ave/delta/count) on step 9280000
Bond:   1   1         1.40237e-06     2000
Angle:  1   109.47    8.99213e-05     1000
   9280000   56.610249     -457.2741       0             -379.42376     -5.6577421    
SHAKE stats (type/ave/delta/count) on step 9290000
Bond:   1   1         1.24973e-06     2000
Angle:  1   109.47    0.000108693     1000
   9290000   56.454707     -458.4271       0             -380.79066     -0.59346793   
SHAKE stats (type/ave/delta/count) on step 9300000
Bond:   1   1         1.86089e-06     2000
Angle:  1   109.47    0.000151103     1000
   9300000   55.914311     -457.84337      0             -380.95009      1.9098706    
SHAKE stats (type/ave/delta/count) on step 9310000
Bond:   1   1         1.60499e-06     2000
Angle:  1   109.47    0.000116824     1000
   9310000   55.547739     -460.16893      0             -383.77975     -1.342012     
SHAKE stats (type/ave/delta/count) on step 9320000
Bond:   1   1         1.39577e-06     2000
Angle:  1   109.47    0.000103919     1000
   9320000   57.567205     -461.27759      0             -382.11124      1.1672467    
SHAKE stats (type/ave/delta/count) on step 9330000
Bond:   1   1         1.20962e-06     2000
Angle:  1   109.47    9.41129e-05     1000
   9330000   57.604038     -457.41735      0             -378.20035     -0.73283932   
SHAKE stats (type/ave/delta/count) on step 9340000
Bond:   1   1         1.17083e-06     2000
Angle:  1   109.47    9.20386e-05     1000
   9340000   57.486008     -455.89006      0             -376.83537     -9.7980191    
SHAKE stats (type/ave/delta/count) on step 9350000
Bond:   1   1         1.2298e-06      2000
Angle:  1   109.47    0.000100663     1000
   9350000   54.966883     -463.04423      0             -387.45385      0.49879756   
SHAKE stats (type/ave/delta/count) on step 9360000
Bond:   1   1         1.15501e-06     2000
Angle:  1   109.47    0.000103334     1000
   9360000   58.986436     -458.17474      0             -377.05667     -3.0247565    
SHAKE stats (type/ave/delta/count) on step 9370000
Bond:   1   1         1.14748e-06     2000
Angle:  1   109.47    9.56113e-05     1000
   9370000   56.44662      -456.97855      0             -379.35323     -4.3400504    
SHAKE stats (type/ave/delta/count) on step 9380000
Bond:   1   1         2.16086e-06     2000
Angle:  1   109.47    0.000167369     1000
   9380000   55.839582     -461.67608      0             -384.88556     -4.9297122    
SHAKE stats (type/ave/delta/count) on step 9390000
Bond:   1   1         1.07752e-06     2000
Angle:  1   109.47    8.99488e-05     1000
   9390000   55.706779     -459.18404      0             -382.57615     -10.550481    
SHAKE stats (type/ave/delta/count) on step 9400000
Bond:   1   1         1.10826e-06     2000
Angle:  1   109.47    0.00010421      1000
   9400000   55.347785     -458.88782      0             -382.77362     -9.7698557    
SHAKE stats (type/ave/delta/count) on step 9410000
Bond:   1   1         1.15934e-06     2000
Angle:  1   109.47    0.000120278     1000
   9410000   56.012931     -455.32925      0             -378.30034     -6.3695161    
SHAKE stats (type/ave/delta/count) on step 9420000
Bond:   1   1         1.72828e-06     2000
Angle:  1   109.47    0.000133408     1000
   9420000   55.584495     -458.47961      0             -382.03988     -2.1577115    
SHAKE stats (type/ave/delta/count) on step 9430000
Bond:   1   1         1.12781e-06     2000
Angle:  1   109.47    0.000103481     1000
   9430000   56.246545     -459.27367      0             -381.92349      1.6534402    
SHAKE stats (type/ave/delta/count) on step 9440000
Bond:   1   1         1.6062e-06      2000
Angle:  1   109.47    0.000144855     1000
   9440000   56.1995       -458.48407      0             -381.19859     -2.0889916    
SHAKE stats (type/ave/delta/count) on step 9450000
Bond:   1   1         1.28572e-06     2000
Angle:  1   109.47    9.07537e-05     1000
   9450000   57.250346     -465.05502      0             -386.32442     -3.4299273    
SHAKE stats (type/ave/delta/count) on step 9460000
Bond:   1   1         1.78075e-06     2000
Angle:  1   109.47    0.000115922     1000
   9460000   55.791061     -463.75455      0             -387.03075     -2.844174     
SHAKE stats (type/ave/delta/count) on step 9470000
Bond:   1   1         1.17902e-06     2000
Angle:  1   109.47    8.67103e-05     1000
   9470000   57.140569     -452.15989      0             -373.58025     -10.465395    
SHAKE stats (type/ave/delta/count) on step 9480000
Bond:   1   1         1.26202e-06     2000
Angle:  1   109.47    8.91774e-05     1000
   9480000   56.49329      -457.06038      0             -379.37088     -1.6695736    
SHAKE stats (type/ave/delta/count) on step 9490000
Bond:   1   1         9.94446e-07     2000
Angle:  1   109.47    0.000106682     1000
   9490000   56.372489     -458.95916      0             -381.43579     -9.4652706    
SHAKE stats (type/ave/delta/count) on step 9500000
Bond:   1   1         1.47498e-06     2000
Angle:  1   109.47    0.000105736     1000
   9500000   55.895127     -459.96862      0             -383.10172      8.4435993    
SHAKE stats (type/ave/delta/count) on step 9510000
Bond:   1   1         1.33962e-06     2000
Angle:  1   109.47    0.000105839     1000
   9510000   56.522925     -457.02389      0             -379.29364     -3.1333882    
SHAKE stats (type/ave/delta/count) on step 9520000
Bond:   1   1         1.10216e-06     2000
Angle:  1   109.47    8.30012e-05     1000
   9520000   56.599289     -462.31076      0             -384.47549     -3.0214307    
SHAKE stats (type/ave/delta/count) on step 9530000
Bond:   1   1         1.60432e-06     2000
Angle:  1   109.47    0.000119947     1000
   9530000   56.912402     -465.67865      0             -387.41279     -5.0367315    
SHAKE stats (type/ave/delta/count) on step 9540000
Bond:   1   1         1.24237e-06     2000
Angle:  1   109.47    9.53969e-05     1000
   9540000   57.094416     -459.91223      0             -381.39607     -7.5350546    
SHAKE stats (type/ave/delta/count) on step 9550000
Bond:   1   1         1.22148e-06     2000
Angle:  1   109.47    9.3667e-05      1000
   9550000   55.623907     -458.0374       0             -381.54348     -6.3460889    
SHAKE stats (type/ave/delta/count) on step 9560000
Bond:   1   1         1.33431e-06     2000
Angle:  1   109.47    9.65201e-05     1000
   9560000   57.17376      -457.66227      0             -379.03699     -3.9147971    
SHAKE stats (type/ave/delta/count) on step 9570000
Bond:   1   1         1.05777e-06     2000
Angle:  1   109.47    8.82611e-05     1000
   9570000   56.259015     -460.48983      0             -383.12251     -1.0680876    
SHAKE stats (type/ave/delta/count) on step 9580000
Bond:   1   1         1.14559e-06     2000
Angle:  1   109.47    9.35595e-05     1000
   9580000   58.517332     -459.30135      0             -378.82839     -3.7737618    
SHAKE stats (type/ave/delta/count) on step 9590000
Bond:   1   1         1.31206e-06     2000
Angle:  1   109.47    0.0001047       1000
   9590000   54.218678     -461.79763      0             -387.23618     -9.5037297    
SHAKE stats (type/ave/delta/count) on step 9600000
Bond:   1   1         1.43909e-06     2000
Angle:  1   109.47    0.000111118     1000
   9600000   55.530914     -463.19417      0             -386.82813     -9.9932548    
SHAKE stats (type/ave/delta/count) on step 9610000
Bond:   1   1         2.10506e-06     2000
Angle:  1   109.47    0.000177727     1000
   9610000   53.522318     -460.3248       0             -386.72098     -0.2629972    
SHAKE stats (type/ave/delta/count) on step 9620000
Bond:   1   1         1.24785e-06     2000
Angle:  1   109.47    0.000112081     1000
   9620000   56.772364     -459.58321      0             -381.50993     -8.5959319    
SHAKE stats (type/ave/delta/count) on step 9630000
Bond:   1   1         1.31136e-06     2000
Angle:  1   109.47    9.35039e-05     1000
   9630000   56.827385     -461.64784      0             -383.49889     -5.6149531    
SHAKE stats (type/ave/delta/count) on step 9640000
Bond:   1   1         1.15679e-06     2000
Angle:  1   109.47    9.87319e-05     1000
   9640000   55.910358     -462.31597      0             -385.42812     -5.3263307    
SHAKE stats (type/ave/delta/count) on step 9650000
Bond:   1   1         1.76155e-06     2000
Angle:  1   109.47    0.000190378     1000
   9650000   58.771362     -459.82411      0             -379.00182      0.015433106  
SHAKE stats (type/ave/delta/count) on step 9660000
Bond:   1   1         1.29594e-06     2000
Angle:  1   109.47    0.000106662     1000
   9660000   56.070931     -461.34484      0             -384.23617      0.43766949   
SHAKE stats (type/ave/delta/count) on step 9670000
Bond:   1   1         1.01119e-06     2000
Angle:  1   109.47    8.60136e-05     1000
   9670000   55.295749     -459.72492      0             -383.68228     -2.9322807    
SHAKE stats (type/ave/delta/count) on step 9680000
Bond:   1   1         1.28947e-06     2000
Angle:  1   109.47    9.4482e-05      1000
   9680000   55.235506     -460.72196      0             -384.76216     -4.1539951    
SHAKE stats (type/ave/delta/count) on step 9690000
Bond:   1   1         1.06047e-06     2000
Angle:  1   109.47    9.18092e-05     1000
   9690000   55.285456     -460.26299      0             -384.2345      -2.1268949    
SHAKE stats (type/ave/delta/count) on step 9700000
Bond:   1   1         1.1897e-06      2000
Angle:  1   109.47    9.04851e-05     1000
   9700000   58.124408     -456.86178      0             -376.92917      1.6259191    
SHAKE stats (type/ave/delta/count) on step 9710000
Bond:   1   1         1.25376e-06     2000
Angle:  1   109.47    9.42649e-05     1000
   9710000   58.157754     -460.97187      0             -380.9934       0.40716911   
SHAKE stats (type/ave/delta/count) on step 9720000
Bond:   1   1         1.28758e-06     2000
Angle:  1   109.47    0.000105596     1000
   9720000   55.156249     -458.22986      0             -382.37906     -2.2595566    
SHAKE stats (type/ave/delta/count) on step 9730000
Bond:   1   1         1.05613e-06     2000
Angle:  1   109.47    9.18448e-05     1000
   9730000   54.266255     -461.13602      0             -386.50914     -11.593219    
SHAKE stats (type/ave/delta/count) on step 9740000
Bond:   1   1         1.37442e-06     2000
Angle:  1   109.47    0.000118444     1000
   9740000   54.818469     -461.2049       0             -385.81862     -3.6259592    
SHAKE stats (type/ave/delta/count) on step 9750000
Bond:   1   1         1.66251e-06     2000
Angle:  1   109.47    0.000128325     1000
   9750000   56.742048     -459.46973      0             -381.43814     -4.0321016    
SHAKE stats (type/ave/delta/count) on step 9760000
Bond:   1   1         1.37498e-06     2000
Angle:  1   109.47    0.000127518     1000
   9760000   57.074337     -454.14729      0             -375.65873     -6.1262254    
SHAKE stats (type/ave/delta/count) on step 9770000
Bond:   1   1         1.15408e-06     2000
Angle:  1   109.47    9.1887e-05      1000
   9770000   56.22953      -459.23885      0             -381.91207     -7.1272666    
SHAKE stats (type/ave/delta/count) on step 9780000
Bond:   1   1         1.0427e-06      2000
Angle:  1   109.47    9.29618e-05     1000
   9780000   57.114367     -460.34588      0             -381.80228     -8.2386925    
SHAKE stats (type/ave/delta/count) on step 9790000
Bond:   1   1         1.29583e-06     2000
Angle:  1   109.47    0.000108534     1000
   9790000   58.00187      -462.19213      0             -382.42803      0.31414672   
SHAKE stats (type/ave/delta/count) on step 9800000
Bond:   1   1         1.14562e-06     2000
Angle:  1   109.47    9.2331e-05      1000
   9800000   55.490065     -457.11685      0             -380.80698      0.65018982   
SHAKE stats (type/ave/delta/count) on step 9810000
Bond:   1   1         1.41557e-06     2000
Angle:  1   109.47    0.000112545     1000
   9810000   56.411289     -456.45429      0             -378.87756     -8.3719695    
SHAKE stats (type/ave/delta/count) on step 9820000
Bond:   1   1         1.12017e-06     2000
Angle:  1   109.47    8.84836e-05     1000
   9820000   58.067757     -459.1206       0             -379.26589     -4.1807044    
SHAKE stats (type/ave/delta/count) on step 9830000
Bond:   1   1         1.20855e-06     2000
Angle:  1   109.47    9.26028e-05     1000
   9830000   55.289418     -463.67224      0             -387.63831     -0.76775347   
SHAKE stats (type/ave/delta/count) on step 9840000
Bond:   1   1         1.20968e-06     2000
Angle:  1   109.47    8.56474e-05     1000
   9840000   56.863665     -458.38567      0             -380.18683     -5.7124644    
SHAKE stats (type/ave/delta/count) on step 9850000
Bond:   1   1         1.03394e-06     2000
Angle:  1   109.47    8.65215e-05     1000
   9850000   56.178798     -458.13231      0             -380.8753       0.17127432   
SHAKE stats (type/ave/delta/count) on step 9860000
Bond:   1   1         1.0684e-06      2000
Angle:  1   109.47    8.73299e-05     1000
   9860000   57.665276     -462.2375       0             -382.93629      0.58446407   
SHAKE stats (type/ave/delta/count) on step 9870000
Bond:   1   1         1.36399e-06     2000
Angle:  1   109.47    0.000157889     1000
   9870000   54.585427     -461.86337      0             -386.79756      1.4586577    
SHAKE stats (type/ave/delta/count) on step 9880000
Bond:   1   1         1.12373e-06     2000
Angle:  1   109.47    9.7069e-05      1000
   9880000   56.987464     -456.85717      0             -378.48809     -3.233544     
SHAKE stats (type/ave/delta/count) on step 9890000
Bond:   1   1         1.25583e-06     2000
Angle:  1   109.47    9.11412e-05     1000
   9890000   55.768036     -465.44298      0             -388.75085     -0.41644131   
SHAKE stats (type/ave/delta/count) on step 9900000
Bond:   1   1         1.18807e-06     2000
Angle:  1   109.47    8.57789e-05     1000
   9900000   56.021819     -461.33027      0             -384.28914     -3.1531119    
SHAKE stats (type/ave/delta/count) on step 9910000
Bond:   1   1         1.41991e-06     2000
Angle:  1   109.47    0.000113812     1000
   9910000   55.560297     -457.33796      0             -380.93151     -0.61427261   
SHAKE stats (type/ave/delta/count) on step 9920000
Bond:   1   1         1.27309e-06     2000
Angle:  1   109.47    0.000110282     1000
   9920000   56.773879     -456.221        0             -378.14564     -4.6014174    
SHAKE stats (type/ave/delta/count) on step 9930000
Bond:   1   1         1.11328e-06     2000
Angle:  1   109.47    0.000101275     1000
   9930000   56.269291     -458.55082      0             -381.16936     -7.6358756    
SHAKE stats (type/ave/delta/count) on step 9940000
Bond:   1   1         1.11506e-06     2000
Angle:  1   109.47    0.000102306     1000
   9940000   56.383363     -462.00145      0             -384.46312     -6.3142559    
SHAKE stats (type/ave/delta/count) on step 9950000
Bond:   1   1         1.08804e-06     2000
Angle:  1   109.47    0.000101131     1000
   9950000   55.391751     -458.23315      0             -382.05849     -5.9058528    
SHAKE stats (type/ave/delta/count) on step 9960000
Bond:   1   1         2.00563e-06     2000
Angle:  1   109.47    0.000137412     1000
   9960000   56.191937     -462.01995      0             -384.74487     -8.1992815    
SHAKE stats (type/ave/delta/count) on step 9970000
Bond:   1   1         1.53393e-06     2000
Angle:  1   109.47    0.000106086     1000
   9970000   55.106553     -460.34407      0             -384.56161     -0.18520038   
SHAKE stats (type/ave/delta/count) on step 9980000
Bond:   1   1         1.63135e-06     2000
Angle:  1   109.47    0.000144463     1000
   9980000   56.516444     -462.29954      0             -384.5782      -3.0744998    
SHAKE stats (type/ave/delta/count) on step 9990000
Bond:   1   1         1.31136e-06     2000
Angle:  1   109.47    9.22666e-05     1000
   9990000   57.713563     -459.25373      0             -379.88611     -3.0280576    
SHAKE stats (type/ave/delta/count) on step 10000000
Bond:   1   1         1.09577e-06     2000
Angle:  1   109.47    9.17994e-05     1000
  10000000   54.731061     -459.84801      0             -384.58193     -0.19349601   
Loop time of 71650.6 on 256 procs for 10000000 steps with 11640 atoms

Performance: 12.059 ns/day, 1.990 hours/ns, 139.566 timesteps/s, 1.625 Matom-step/s
100.0% CPU use with 256 MPI tasks x 1 OpenMP threads

MPI task timing breakdown:
Section |  min time  |  avg time  |  max time  |%varavg| %total
---------------------------------------------------------------
Pair    | 1.0771     | 778.27     | 11297      |7965.0 |  1.09
Bond    | 0.86347    | 1.5919     | 3.457      |  36.4 |  0.00
Kspace  | 52332      | 62274      | 63284      | 832.0 | 86.91
Neigh   | 2887.5     | 2945.3     | 2978.1     |  57.5 |  4.11
Comm    | 29.957     | 621.22     | 2685.4     |3338.7 |  0.87
Output  | 0.33174    | 0.34461    | 0.34942    |   0.7 |  0.00
Modify  | 2325.6     | 4825.2     | 5612.8     |1190.9 |  6.73
Other   |            | 204.3      |            |       |  0.29

Nlocal:        45.4688 ave        1193 max           0 min
Histogram: 223 1 26 1 2 0 1 1 0 1
Nghost:        271.766 ave        2311 max           0 min
Histogram: 186 0 23 23 10 1 6 2 3 2
Neighs:         5034.7 ave      268199 max           0 min
Histogram: 250 1 1 1 1 0 1 0 0 1

Total # of neighbors = 1288882
Ave neighs/atom = 110.72869
Ave special neighs/atom = 0.51546392
Neighbor list builds = 473838
Dangerous builds = 0

write_restart nvt_equi.restart.*
System init for write_restart ...
PPPM initialization ...
  using 12-bit tables for long-range coulomb (src/kspace.cpp:342)
  G vector (1/distance) = 0.27466065
  grid = 72 72 72
  stencil order = 5
  estimated absolute RMS force accuracy = 0.00016054877
  estimated relative force accuracy = 1.1149495e-05
  using double precision KISS FFT
  3d grid and FFT values/proc = 4508 1800
Generated 0 of 3 mixed pair_coeff terms from geometric mixing rule
write_data nvt_equi_final.lammps-data pair ij
System init for write_data ...
PPPM initialization ...
  using 12-bit tables for long-range coulomb (src/kspace.cpp:342)
  G vector (1/distance) = 0.27466065
  grid = 72 72 72
  stencil order = 5
  estimated absolute RMS force accuracy = 0.00016054877
  estimated relative force accuracy = 1.1149495e-05
  using double precision KISS FFT
  3d grid and FFT values/proc = 4508 1800
Generated 0 of 3 mixed pair_coeff terms from geometric mixing rule

Total wall time: 19:54:52
