LAMMPS (4 Feb 2025)
OMP_NUM_THREADS environment is not set. Defaulting to 1 thread. (src/comm.cpp:99)
  using 1 OpenMP thread(s) per MPI task
# LAMMPS script for running NVT simulation

units       metal                   # Energies in eV, distances in A
dimension   3
boundary    p p p
atom_style  full

read_data   ../start.lammps-data
Reading data file ...
  orthogonal box = (0 0 0) to (154.008 148.19427 151.07317)
  10 by 8 by 8 MPI processor grid
  reading atoms ...
  18999 atoms
  scanning bonds ...
  2 = max bonds/atom
  reading velocities ...
  18999 velocities
  scanning angles ...
  1 = max angles/atom
  orthogonal box = (0 0 0) to (154.008 148.19427 151.07317)
  10 by 8 by 8 MPI processor grid
  reading bonds ...
  6906 bonds
  reading angles ...
  3453 angles
Finding 1-2 1-3 1-4 neighbors ...
  special bond factors lj:    0        0        0       
  special bond factors coul:  0        0        0       
     2 = max # of 1-2 neighbors
     1 = max # of 1-3 neighbors
     1 = max # of 1-4 neighbors
     2 = max # of special neighbors
  special bonds CPU = 6.112 seconds
  read_data CPU = 6.394 seconds

bond_style   zero                    # SPC/E rigid model
bond_coeff   1 1.0                   # SPC/E rigid model
angle_style  zero                    # SPC/E rigid model
angle_coeff  1 109.47                # SPC/E rigid model
pair_style   lj/cut/coul/long 9.0    # Cutoff radius of 0.9 nm = 9 A
kspace_style pppm 1.0e-5             # Particle-particle particle-mesh Ewald summation
pair_coeff   1 1 0.0      1.0        # Ignore C-C
pair_coeff   1 2 0.0      1.0        # Ignore C-H
pair_coeff   1 3 0.004551 3.367      # LJ for C-O (0.4391 kJ/mol = 0.004551 eV)
pair_coeff   2 2 0.0      1.0        # SPC/E H-H
pair_coeff   2 3 0.0      1.0        # SPC/E H-O
pair_coeff   3 3 0.006735 3.166      # SPC/E O-O (0.1553 kcal/mol = 0.006735 eV)

set type 2 charge 0.4238            # SPC/E H
Setting atom values ...
  6906 settings made for charge
set type 3 charge -0.8476           # SPC/E O
Setting atom values ...
  3453 settings made for charge

variable t equal step

group graphene type 1
8640 atoms in group graphene
group H2O type 2 3
10359 atoms in group H2O

######### Energy minimization #########

thermo 10
fix graphene_fix graphene setforce 0.0 0.0 0.0
fix rigid_bonds H2O shake 0.0001 10 10000 b 1 a 1
Finding SHAKE clusters ...
       0 = # of size 2 clusters
       0 = # of size 3 clusters
       0 = # of size 4 clusters
    3453 = # of frozen angles
  find clusters CPU = 0.175 seconds
minimize 0.0 0.0 1000 1000000
PPPM initialization ...
  using 12-bit tables for long-range coulomb (src/kspace.cpp:342)
  G vector (1/distance) = 0.29613742
  grid = 90 90 90
  stencil order = 5
  estimated absolute RMS force accuracy = 0.00016052161
  estimated relative force accuracy = 1.1147609e-05
  using double precision KISS FFT
  3d grid and FFT values/proc = 5184 1350
Generated 0 of 3 mixed pair_coeff terms from geometric mixing rule
WARNING: Using fix shake with minimization.
  Substituting constraints with harmonic restraint forces using kbond=86.17 (src/RIGID/fix_shake.cpp:386)
Neighbor list info ...
  update: every = 1 steps, delay = 0 steps, check = yes
  max neighbors/atom: 2000, page size: 100000
  master list distance cutoff = 11
  ghost atom cutoff = 11
  binsize = 5.5, bins = 29 27 28
  1 neighbor lists, perpetual/occasional/extra = 1 0 0
  (1) pair lj/cut/coul/long, perpetual
      attributes: half, newton on
      pair build: half/bin/newton
      stencil: half/bin/3d
      bin: standard
Per MPI rank memory allocation (min/avg/max) = 9.175 | 9.26 | 10.06 Mbytes
   Step          Temp          E_pair         E_mol          TotEng         Press     
         0   198.79473      1.2357444e+12  0              1.2357444e+12  2.2968732e+12
        10   198.79473      1294089.4      0              1294508.9      2408981.7    
        20   198.79473     -1033.1435      0             -400.90025      1480.8101    
        30   198.79473     -1333.655       0              889972.66     -162435.68    
SHAKE stats (type/ave/delta/count) on step 30
Bond:   1   1.16668   22.4164         6904
Angle:  1   107.486   167.383         3451
Loop time of 0.585331 on 640 procs for 30 steps with 18999 atoms

98.5% CPU use with 640 MPI tasks x 1 OpenMP threads

Minimization stats:
  Stopping criterion = linesearch alpha is zero
  Energy initial, next-to-last, final = 
      1235744447602.89  -1262.88365503255   889573.213102304
  Force two-norm initial, final = 6.2591253e+13 27954.472
  Force max component initial, final = 5.8356526e+13 5001.512
  Final line search alpha, max atom move = 3.2237189e-13 1.6123469e-09
  Iterations, force evaluations = 30 74

MPI task timing breakdown:
Section |  min time  |  avg time  |  max time  |%varavg| %total
---------------------------------------------------------------
Pair    | 1.1998e-05 | 0.0087254  | 0.30191    |  40.3 |  1.49
Bond    | 1.0426e-05 | 2.1762e-05 | 4.3053e-05 |   0.0 |  0.00
Kspace  | 0.24329    | 0.54583    | 0.55662    |   5.3 | 93.25
Neigh   | 0.0085442  | 0.0091183  | 0.009297   |   0.2 |  1.56
Comm    | 0.00019757 | 0.002985   | 0.016801   |   7.5 |  0.51
Output  | 0.00034116 | 0.00034822 | 0.00037513 |   0.0 |  0.06
Modify  | 0.00014967 | 0.0013207  | 0.0033659  |   1.4 |  0.23
Other   |            | 0.01698    |            |       |  2.90

Nlocal:        29.6859 ave         616 max           0 min
Histogram: 550 53 9 5 3 4 2 2 4 8
Nghost:        298.184 ave        3957 max           0 min
Histogram: 456 105 25 17 18 7 5 3 3 1
Neighs:        4813.25 ave      171054 max           0 min
Histogram: 607 10 4 3 2 3 3 0 4 4

Total # of neighbors = 3080482
Ave neighs/atom = 162.13917
Ave special neighs/atom = 1.0904784
Neighbor list builds = 2
Dangerous builds = 0
unfix graphene_fix
reset_timestep 0

######### Soft run to prevent explosion #########

thermo 150
timestep 0.00001
fix NVT1 H2O nvt temp 300 300 $(20.0*dt)
fix NVT1 H2O nvt temp 300 300 0.00020000000000000000958
run 1500
PPPM initialization ...
  using 12-bit tables for long-range coulomb (src/kspace.cpp:342)
  G vector (1/distance) = 0.29613742
  grid = 90 90 90
  stencil order = 5
  estimated absolute RMS force accuracy = 0.00016052161
  estimated relative force accuracy = 1.1147609e-05
  using double precision KISS FFT
  3d grid and FFT values/proc = 5184 1350
Generated 0 of 3 mixed pair_coeff terms from geometric mixing rule
SHAKE stats (type/ave/delta/count) on step 0
Bond:   1   1.00426   0.596168        6906
Angle:  1   108.776   70.9113         3453
Per MPI rank memory allocation (min/avg/max) = 8.05 | 8.135 | 8.937 Mbytes
   Step          Temp          E_pair         E_mol          TotEng         Press     
         0   198.79473     -1333.655       0             -934.20702      1465.325     
       150   134.74864     -1311.2497      0             -1040.4927      282.03767    
       300   134.39799     -1351.1621      0             -1081.1096      214.69693    
       450   134.30027     -1385.3458      0             -1115.4897      158.40707    
       600   134.189       -1416.3122      0             -1146.6797      109.67391    
       750   134.06799     -1443.543       0             -1174.1536      69.424781    
       900   133.95159     -1466.9264      0             -1197.7709      37.411444    
      1050   133.84755     -1486.7418      0             -1217.7953      12.493617    
      1200   133.76477     -1503.5804      0             -1234.8003     -7.1362424    
      1350   133.70782     -1518.1923      0             -1249.5267     -23.50338     
      1500   133.66466     -1531.2277      0             -1262.6487     -38.298304    
Loop time of 9.63294 on 640 procs for 1500 steps with 18999 atoms

Performance: 0.135 ns/day, 178.388 hours/ns, 155.716 timesteps/s, 2.958 Matom-step/s
99.9% CPU use with 640 MPI tasks x 1 OpenMP threads

MPI task timing breakdown:
Section |  min time  |  avg time  |  max time  |%varavg| %total
---------------------------------------------------------------
Pair    | 0.00013145 | 0.11793    | 4.2412     | 152.7 |  1.22
Bond    | 0.00011645 | 0.00026603 | 0.00061078 |   0.0 |  0.00
Kspace  | 4.774      | 8.8916     | 9.0998     |  17.8 | 92.30
Neigh   | 0.013168   | 0.014003   | 0.014232   |   0.2 |  0.15
Comm    | 0.00071446 | 0.074048   | 0.52877    |  44.7 |  0.77
Output  | 0.0020697  | 0.0021168  | 0.002254   |   0.1 |  0.02
Modify  | 0.22482    | 0.49542    | 0.68934    |  14.3 |  5.14
Other   |            | 0.03752    |            |       |  0.39

Nlocal:        29.6859 ave         611 max           0 min
Histogram: 550 53 9 5 3 4 2 3 2 9
Nghost:        298.075 ave        3959 max           0 min
Histogram: 456 105 25 17 18 7 5 3 3 1
Neighs:        4815.96 ave      170166 max           0 min
Histogram: 607 10 4 3 2 3 3 0 4 4

Total # of neighbors = 3082216
Ave neighs/atom = 162.23043
Ave special neighs/atom = 1.0904784
Neighbor list builds = 3
Dangerous builds = 0
unfix NVT1
reset_timestep 0

######### A little bit faster #########

thermo 150
timestep 0.00002
fix NVT1 H2O nvt temp 300 300 $(25.0*dt)
fix NVT1 H2O nvt temp 300 300 0.00050000000000000001041
run 1500
PPPM initialization ...
  using 12-bit tables for long-range coulomb (src/kspace.cpp:342)
  G vector (1/distance) = 0.29613742
  grid = 90 90 90
  stencil order = 5
  estimated absolute RMS force accuracy = 0.00016052161
  estimated relative force accuracy = 1.1147609e-05
  using double precision KISS FFT
  3d grid and FFT values/proc = 5184 1350
Generated 0 of 3 mixed pair_coeff terms from geometric mixing rule
SHAKE stats (type/ave/delta/count) on step 0
Bond:   1   1         7.37173e-11     6906
Angle:  1   109.47    1.14473e-08     3453
Per MPI rank memory allocation (min/avg/max) = 8.05 | 8.135 | 8.937 Mbytes
   Step          Temp          E_pair         E_mol          TotEng         Press     
         0   133.66466     -1531.2277      0             -1262.6487     -38.309962    
       150   133.76913     -1552.8756      0             -1284.0868     -64.532139    
       300   133.29678     -1567.9332      0             -1300.0935     -84.600398    
       450   132.08876     -1577.5766      0             -1312.1642     -98.546086    
       600   133.34799     -1583.6447      0             -1315.7021     -106.56008    
       750   133.63584     -1587.483       0             -1318.962      -111.00673    
       900   132.51463     -1589.8381      0             -1323.57       -112.72904    
      1050   134.59591     -1591.3599      0             -1320.9098     -110.78163    
      1200   133.38533     -1592.8201      0             -1324.8024     -108.70579    
      1350   131.90665     -1594.9909      0             -1329.9445     -106.0974     
      1500   133.51143     -1598.4497      0             -1330.1786     -102.36764    
Loop time of 9.60087 on 640 procs for 1500 steps with 18999 atoms

Performance: 0.270 ns/day, 88.897 hours/ns, 156.236 timesteps/s, 2.968 Matom-step/s
100.0% CPU use with 640 MPI tasks x 1 OpenMP threads

MPI task timing breakdown:
Section |  min time  |  avg time  |  max time  |%varavg| %total
---------------------------------------------------------------
Pair    | 0.00012936 | 0.11813    | 4.2363     | 152.8 |  1.23
Bond    | 0.00011808 | 0.00026872 | 0.00058988 |   0.0 |  0.00
Kspace  | 4.7477     | 8.8639     | 9.0726     |  17.9 | 92.32
Neigh   | 0.017713   | 0.01878    | 0.019289   |   0.3 |  0.20
Comm    | 0.00084704 | 0.074282   | 0.53091    |  44.7 |  0.77
Output  | 0.0020284  | 0.002074   | 0.0022368  |   0.1 |  0.02
Modify  | 0.21915    | 0.49151    | 0.68678    |  14.4 |  5.12
Other   |            | 0.0319     |            |       |  0.33

Nlocal:        29.6859 ave         609 max           0 min
Histogram: 550 53 9 4 4 4 2 2 3 9
Nghost:        297.923 ave        3960 max           0 min
Histogram: 456 105 25 17 18 8 4 3 3 1
Neighs:        4830.96 ave      170708 max           0 min
Histogram: 608 9 4 3 2 3 3 0 4 4

Total # of neighbors = 3091815
Ave neighs/atom = 162.73567
Ave special neighs/atom = 1.0904784
Neighbor list builds = 4
Dangerous builds = 0
unfix NVT1
reset_timestep 0

######### And faster still #########

thermo 150
timestep 0.00005
fix NVT1 H2O nvt temp 300 300 $(30.0*dt)
fix NVT1 H2O nvt temp 300 300 0.0015000000000000000312
run 1500
PPPM initialization ...
  using 12-bit tables for long-range coulomb (src/kspace.cpp:342)
  G vector (1/distance) = 0.29613742
  grid = 90 90 90
  stencil order = 5
  estimated absolute RMS force accuracy = 0.00016052161
  estimated relative force accuracy = 1.1147609e-05
  using double precision KISS FFT
  3d grid and FFT values/proc = 5184 1350
Generated 0 of 3 mixed pair_coeff terms from geometric mixing rule
SHAKE stats (type/ave/delta/count) on step 0
Bond:   1   1         2.4192e-10      6906
Angle:  1   109.47    3.28338e-08     3453
Per MPI rank memory allocation (min/avg/max) = 8.05 | 8.135 | 8.937 Mbytes
   Step          Temp          E_pair         E_mol          TotEng         Press     
         0   133.51143     -1598.4497      0             -1330.1786     -102.36734    
       150   134.26265     -1608.4141      0             -1338.6336     -92.430549    
       300   133.4878      -1614.4181      0             -1346.1945     -76.260993    
       450   131.62855     -1620.6114      0             -1356.1237     -60.411413    
       600   133.2084      -1626.6342      0             -1358.972      -43.61042     
       750   134.99958     -1630.2839      0             -1359.0227     -25.042742    
       900   133.97295     -1632.7655      0             -1363.5671     -8.8975954    
      1050   136.15807     -1636.86        0             -1363.2709      3.8885738    
      1200   131.70522     -1643.3121      0             -1378.6703      9.0217407    
      1350   132.76417     -1646.0858      0             -1379.3163      15.422413    
      1500   131.75028     -1647.4414      0             -1382.7091      21.001842    
Loop time of 9.64228 on 640 procs for 1500 steps with 18999 atoms

Performance: 0.672 ns/day, 35.712 hours/ns, 155.565 timesteps/s, 2.956 Matom-step/s
100.0% CPU use with 640 MPI tasks x 1 OpenMP threads

MPI task timing breakdown:
Section |  min time  |  avg time  |  max time  |%varavg| %total
---------------------------------------------------------------
Pair    | 0.00013433 | 0.11889    | 4.24       | 153.7 |  1.23
Bond    | 0.00011811 | 0.00027036 | 0.00059226 |   0.0 |  0.00
Kspace  | 4.7579     | 8.8795     | 9.0898     |  18.0 | 92.09
Neigh   | 0.040418   | 0.042698   | 0.043428   |   0.4 |  0.44
Comm    | 0.0012725  | 0.07474    | 0.53085    |  44.6 |  0.78
Output  | 0.0020266  | 0.0020691  | 0.0022133  |   0.1 |  0.02
Modify  | 0.22144    | 0.49188    | 0.68824    |  14.4 |  5.10
Other   |            | 0.03219    |            |       |  0.33

Nlocal:        29.6859 ave         608 max           0 min
Histogram: 550 53 8 5 4 4 2 2 4 8
Nghost:        298.489 ave        3960 max           0 min
Histogram: 456 105 25 17 17 7 5 4 3 1
Neighs:        4868.27 ave      172310 max           0 min
Histogram: 607 10 4 3 2 3 3 0 2 6

Total # of neighbors = 3115691
Ave neighs/atom = 163.99237
Ave special neighs/atom = 1.0904784
Neighbor list builds = 9
Dangerous builds = 0
unfix NVT1
reset_timestep 0

######### NVT equilibration for 10 ns #############

thermo 10000
#dump DUMP1 all atom 100 nvt_equi.lammpstrj
timestep 0.001
fix NVT1 H2O nvt temp 300 300 $(100.0*dt)
fix NVT1 H2O nvt temp 300 300 0.10000000000000000555
run 10000000
PPPM initialization ...
  using 12-bit tables for long-range coulomb (src/kspace.cpp:342)
  G vector (1/distance) = 0.29613742
  grid = 90 90 90
  stencil order = 5
  estimated absolute RMS force accuracy = 0.00016052161
  estimated relative force accuracy = 1.1147609e-05
  using double precision KISS FFT
  3d grid and FFT values/proc = 5184 1350
Generated 0 of 3 mixed pair_coeff terms from geometric mixing rule
SHAKE stats (type/ave/delta/count) on step 0
Bond:   1   1         2.09244e-09     6906
Angle:  1   109.47    1.88589e-07     3453
Per MPI rank memory allocation (min/avg/max) = 8.05 | 8.135 | 8.937 Mbytes
   Step          Temp          E_pair         E_mol          TotEng         Press     
         0   131.75028     -1647.4414      0             -1382.7091      20.918084    
SHAKE stats (type/ave/delta/count) on step 10000
Bond:   1   1         1.41899e-06     6906
Angle:  1   109.47    9.62554e-05     3453
     10000   133.60731     -1623.2024      0             -1354.7387     -0.04252974   
SHAKE stats (type/ave/delta/count) on step 20000
Bond:   1   1         1.39905e-06     6906
Angle:  1   109.47    0.000100955     3453
     20000   134.27039     -1622.3828      0             -1352.5867     -6.0473334    
SHAKE stats (type/ave/delta/count) on step 30000
Bond:   1   1         1.14762e-06     6906
Angle:  1   109.47    0.000104525     3453
     30000   135.25944     -1615.4591      0             -1343.6757     -13.6319      
SHAKE stats (type/ave/delta/count) on step 40000
Bond:   1   1         1.28866e-06     6906
Angle:  1   109.47    0.000106726     3453
     40000   132.09528     -1617.2428      0             -1351.8173     -0.23290042   
SHAKE stats (type/ave/delta/count) on step 50000
Bond:   1   1         1.73716e-06     6906
Angle:  1   109.47    0.000112142     3453
     50000   131.73988     -1618.3822      0             -1353.6708     -4.6630676    
SHAKE stats (type/ave/delta/count) on step 60000
Bond:   1   1         1.65893e-06     6906
Angle:  1   109.47    0.000105758     3453
     60000   134.39849     -1614.0447      0             -1343.9912      5.2795481    
SHAKE stats (type/ave/delta/count) on step 70000
Bond:   1   1         1.21777e-06     6906
Angle:  1   109.47    9.71327e-05     3453
     70000   132.35974     -1614.1557      0             -1348.1988     -11.335051    
SHAKE stats (type/ave/delta/count) on step 80000
Bond:   1   1         1.17507e-06     6906
Angle:  1   109.47    9.04836e-05     3453
     80000   134.13353     -1608.764       0             -1339.2429     -6.4471689    
SHAKE stats (type/ave/delta/count) on step 90000
Bond:   1   1         1.13082e-06     6906
Angle:  1   109.47    8.91238e-05     3453
     90000   135.19798     -1610.2491      0             -1338.5891     -9.0423321    
SHAKE stats (type/ave/delta/count) on step 100000
Bond:   1   1         1.28336e-06     6906
Angle:  1   109.47    0.000106229     3453
    100000   132.32372     -1610.4608      0             -1344.5762     -9.9842769    
SHAKE stats (type/ave/delta/count) on step 110000
Bond:   1   1         1.60735e-06     6906
Angle:  1   109.47    0.00011078      3453
    110000   135.69547     -1613.3174      0             -1340.6579     -9.1757017    
SHAKE stats (type/ave/delta/count) on step 120000
Bond:   1   1         1.38336e-06     6906
Angle:  1   109.47    9.81778e-05     3453
    120000   132.11289     -1619.2644      0             -1353.8035     -5.0362991    
SHAKE stats (type/ave/delta/count) on step 130000
Bond:   1   1         1.63019e-06     6906
Angle:  1   109.47    0.000114663     3453
    130000   132.14367     -1610.9709      0             -1345.4482     -3.6285696    
SHAKE stats (type/ave/delta/count) on step 140000
Bond:   1   1         1.46861e-06     6906
Angle:  1   109.47    0.000103934     3453
    140000   133.48158     -1612.2706      0             -1344.0595     -0.15661264   
SHAKE stats (type/ave/delta/count) on step 150000
Bond:   1   1         1.441e-06       6906
Angle:  1   109.47    0.000104948     3453
    150000   132.61926     -1611.1019      0             -1344.6236     -14.741989    
SHAKE stats (type/ave/delta/count) on step 160000
Bond:   1   1         1.1851e-06      6906
Angle:  1   109.47    9.98785e-05     3453
    160000   132.67005     -1610.143       0             -1343.5625      4.6836861    
SHAKE stats (type/ave/delta/count) on step 170000
Bond:   1   1         1.21046e-06     6906
Angle:  1   109.47    9.8117e-05      3453
    170000   133.54003     -1613.6903      0             -1345.3618     -11.423537    
SHAKE stats (type/ave/delta/count) on step 180000
Bond:   1   1         1.10679e-06     6906
Angle:  1   109.47    0.000108884     3453
    180000   132.22645     -1611.3283      0             -1345.6393     -9.3131667    
SHAKE stats (type/ave/delta/count) on step 190000
Bond:   1   1         1.02007e-06     6906
Angle:  1   109.47    9.47531e-05     3453
    190000   132.04097     -1609.7185      0             -1344.4021     -20.540619    
SHAKE stats (type/ave/delta/count) on step 200000
Bond:   1   1         1.20172e-06     6906
Angle:  1   109.47    9.0783e-05      3453
    200000   133.57176     -1607.6394      0             -1339.2471     -6.5195135    
SHAKE stats (type/ave/delta/count) on step 210000
Bond:   1   1         1.55171e-06     6906
Angle:  1   109.47    0.00010158      3453
    210000   132.93294     -1610.6785      0             -1343.5698     -0.022306564  
SHAKE stats (type/ave/delta/count) on step 220000
Bond:   1   1         1.12034e-06     6906
Angle:  1   109.47    9.76401e-05     3453
    220000   135.90153     -1612.0409      0             -1338.9673     -7.3973478    
SHAKE stats (type/ave/delta/count) on step 230000
Bond:   1   1         1.32358e-06     6906
Angle:  1   109.47    0.000102552     3453
    230000   133.76258     -1612.7055      0             -1343.9298     -6.4305859    
SHAKE stats (type/ave/delta/count) on step 240000
Bond:   1   1         1.30369e-06     6906
Angle:  1   109.47    9.65182e-05     3453
    240000   134.18441     -1609.6991      0             -1340.0758     -4.8809658    
SHAKE stats (type/ave/delta/count) on step 250000
Bond:   1   1         1.0921e-06      6906
Angle:  1   109.47    0.00011055      3453
    250000   136.04716     -1616.0399      0             -1342.6737     -17.741966    
SHAKE stats (type/ave/delta/count) on step 260000
Bond:   1   1         1.28013e-06     6906
Angle:  1   109.47    9.20049e-05     3453
    260000   133.12455     -1606.8586      0             -1339.3649      0.62134146   
SHAKE stats (type/ave/delta/count) on step 270000
Bond:   1   1         1.31788e-06     6906
Angle:  1   109.47    9.77565e-05     3453
    270000   132.82025     -1603.9314      0             -1337.0492     -13.455685    
SHAKE stats (type/ave/delta/count) on step 280000
Bond:   1   1         1.32273e-06     6906
Angle:  1   109.47    0.00010465      3453
    280000   131.98915     -1610.9131      0             -1345.7008     -1.9102862    
SHAKE stats (type/ave/delta/count) on step 290000
Bond:   1   1         1.16618e-06     6906
Angle:  1   109.47    0.000115274     3453
    290000   132.48217     -1612.5837      0             -1346.3808     -12.434955    
SHAKE stats (type/ave/delta/count) on step 300000
Bond:   1   1         1.33635e-06     6906
Angle:  1   109.47    0.00010065      3453
    300000   134.09283     -1608.6751      0             -1339.2358     -0.78055593   
SHAKE stats (type/ave/delta/count) on step 310000
Bond:   1   1         1.36232e-06     6906
Angle:  1   109.47    9.84189e-05     3453
    310000   133.84805     -1603.4785      0             -1334.531      -16.775144    
SHAKE stats (type/ave/delta/count) on step 320000
Bond:   1   1         1.61757e-06     6906
Angle:  1   109.47    8.98727e-05     3453
    320000   135.64711     -1604.508       0             -1331.9456     -24.410247    
SHAKE stats (type/ave/delta/count) on step 330000
Bond:   1   1         1.18693e-06     6906
Angle:  1   109.47    9.84434e-05     3453
    330000   134.1496      -1615.1892      0             -1345.6358      0.23489507   
SHAKE stats (type/ave/delta/count) on step 340000
Bond:   1   1         1.27465e-06     6906
Angle:  1   109.47    0.000114639     3453
    340000   132.75106     -1612.5337      0             -1345.7905     -13.086879    
SHAKE stats (type/ave/delta/count) on step 350000
Bond:   1   1         1.24862e-06     6906
Angle:  1   109.47    8.60338e-05     3453
    350000   133.83121     -1616.1204      0             -1347.2068     -14.462689    
SHAKE stats (type/ave/delta/count) on step 360000
Bond:   1   1         1.28342e-06     6906
Angle:  1   109.47    0.00013835      3453
    360000   130.24684     -1612.4271      0             -1350.7157     -8.1196316    
SHAKE stats (type/ave/delta/count) on step 370000
Bond:   1   1         1.42878e-06     6906
Angle:  1   109.47    9.82123e-05     3453
    370000   133.30896     -1610.2742      0             -1342.41       -14.892639    
SHAKE stats (type/ave/delta/count) on step 380000
Bond:   1   1         2.13038e-06     6906
Angle:  1   109.47    0.000156616     3453
    380000   135.49366     -1608.4487      0             -1336.1946     -19.840764    
SHAKE stats (type/ave/delta/count) on step 390000
Bond:   1   1         1.30412e-06     6906
Angle:  1   109.47    9.80206e-05     3453
    390000   134.29598     -1606.9258      0             -1337.0784     -3.797554     
SHAKE stats (type/ave/delta/count) on step 400000
Bond:   1   1         1.29162e-06     6906
Angle:  1   109.47    0.000100183     3453
    400000   132.30069     -1616.9382      0             -1351.0999     -6.8774531    
SHAKE stats (type/ave/delta/count) on step 410000
Bond:   1   1         1.41916e-06     6906
Angle:  1   109.47    9.57893e-05     3453
    410000   134.88659     -1611.9709      0             -1340.9367     -4.7089465    
SHAKE stats (type/ave/delta/count) on step 420000
Bond:   1   1         1.49618e-06     6906
Angle:  1   109.47    0.000108314     3453
    420000   133.48672     -1615.9312      0             -1347.7098     -2.3768162    
SHAKE stats (type/ave/delta/count) on step 430000
Bond:   1   1         1.30948e-06     6906
Angle:  1   109.47    0.000104102     3453
    430000   133.3038      -1614.8508      0             -1346.997      -2.0203767    
SHAKE stats (type/ave/delta/count) on step 440000
Bond:   1   1         1.43717e-06     6906
Angle:  1   109.47    0.000114946     3453
    440000   133.78038     -1607.6021      0             -1338.7907     -9.4755729    
SHAKE stats (type/ave/delta/count) on step 450000
Bond:   1   1         1.29356e-06     6906
Angle:  1   109.47    9.31695e-05     3453
    450000   133.61189     -1611.5748      0             -1343.1019      2.5249222    
SHAKE stats (type/ave/delta/count) on step 460000
Bond:   1   1         1.27253e-06     6906
Angle:  1   109.47    8.91892e-05     3453
    460000   132.97041     -1614.2919      0             -1347.1079     -4.7730855    
SHAKE stats (type/ave/delta/count) on step 470000
Bond:   1   1         1.36397e-06     6906
Angle:  1   109.47    0.000103082     3453
    470000   132.82        -1609.4765      0             -1342.5948     -0.98157404   
SHAKE stats (type/ave/delta/count) on step 480000
Bond:   1   1         1.19586e-06     6906
Angle:  1   109.47    9.15537e-05     3453
    480000   133.98735     -1611.1043      0             -1341.8769     -6.9485791    
SHAKE stats (type/ave/delta/count) on step 490000
Bond:   1   1         1.27673e-06     6906
Angle:  1   109.47    9.16509e-05     3453
    490000   134.09801     -1619.4313      0             -1349.9816      8.6089272    
SHAKE stats (type/ave/delta/count) on step 500000
Bond:   1   1         1.34014e-06     6906
Angle:  1   109.47    0.000138461     3453
    500000   132.45451     -1611.7957      0             -1345.6484     -5.9613209    
SHAKE stats (type/ave/delta/count) on step 510000
Bond:   1   1         1.10988e-06     6906
Angle:  1   109.47    9.99609e-05     3453
    510000   133.70429     -1609.32        0             -1340.6614     -9.2923018    
SHAKE stats (type/ave/delta/count) on step 520000
Bond:   1   1         1.17416e-06     6906
Angle:  1   109.47    9.3256e-05      3453
    520000   133.24059     -1616.0091      0             -1348.2823     -10.603667    
SHAKE stats (type/ave/delta/count) on step 530000
Bond:   1   1         1.31382e-06     6906
Angle:  1   109.47    9.72911e-05     3453
    530000   132.69951     -1605.338       0             -1338.6983     -6.1402644    
SHAKE stats (type/ave/delta/count) on step 540000
Bond:   1   1         1.78578e-06     6906
Angle:  1   109.47    0.000127408     3453
    540000   132.01997     -1610.1924      0             -1344.9182     -12.693394    
SHAKE stats (type/ave/delta/count) on step 550000
Bond:   1   1         1.09348e-06     6906
Angle:  1   109.47    9.01392e-05     3453
    550000   134.66539     -1605.9887      0             -1335.3989     -16.997133    
SHAKE stats (type/ave/delta/count) on step 560000
Bond:   1   1         1.46794e-06     6906
Angle:  1   109.47    0.000100581     3453
    560000   132.88155     -1611.7778      0             -1344.7724     -16.477048    
SHAKE stats (type/ave/delta/count) on step 570000
Bond:   1   1         1.22577e-06     6906
Angle:  1   109.47    9.38742e-05     3453
    570000   135.84188     -1616.1901      0             -1343.2363     -26.417406    
SHAKE stats (type/ave/delta/count) on step 580000
Bond:   1   1         1.34055e-06     6906
Angle:  1   109.47    0.000104573     3453
    580000   132.74404     -1617.5495      0             -1350.8204     -5.6390174    
SHAKE stats (type/ave/delta/count) on step 590000
Bond:   1   1         1.19714e-06     6906
Angle:  1   109.47    0.000101523     3453
    590000   133.36283     -1618.9283      0             -1350.9558     -6.7318163    
SHAKE stats (type/ave/delta/count) on step 600000
Bond:   1   1         1.24843e-06     6906
Angle:  1   109.47    0.000103156     3453
    600000   134.72859     -1615.4622      0             -1344.7454     -10.159721    
SHAKE stats (type/ave/delta/count) on step 610000
Bond:   1   1         1.16025e-06     6906
Angle:  1   109.47    0.00010164      3453
    610000   135.18676     -1610.9459      0             -1339.3085     -9.1238997    
SHAKE stats (type/ave/delta/count) on step 620000
Bond:   1   1         1.29594e-06     6906
Angle:  1   109.47    9.26172e-05     3453
    620000   133.06226     -1614.022       0             -1346.6535     -9.7631991    
SHAKE stats (type/ave/delta/count) on step 630000
Bond:   1   1         1.32026e-06     6906
Angle:  1   109.47    0.00010187      3453
    630000   135.81023     -1606.3325      0             -1333.4423     -5.3237927    
SHAKE stats (type/ave/delta/count) on step 640000
Bond:   1   1         1.41932e-06     6906
Angle:  1   109.47    9.92352e-05     3453
    640000   131.62067     -1609.3035      0             -1344.8316     -6.5840818    
SHAKE stats (type/ave/delta/count) on step 650000
Bond:   1   1         1.16032e-06     6906
Angle:  1   109.47    9.98188e-05     3453
    650000   132.45266     -1617.3417      0             -1351.1981     -5.1951235    
SHAKE stats (type/ave/delta/count) on step 660000
Bond:   1   1         1.72726e-06     6906
Angle:  1   109.47    0.0001168       3453
    660000   133.41447     -1605.7659      0             -1337.6897     -17.843328    
SHAKE stats (type/ave/delta/count) on step 670000
Bond:   1   1         1.91006e-06     6906
Angle:  1   109.47    0.000132775     3453
    670000   131.1849      -1608.595       0             -1344.9987     -8.9229428    
SHAKE stats (type/ave/delta/count) on step 680000
Bond:   1   1         1.26916e-06     6906
Angle:  1   109.47    9.3574e-05      3453
    680000   133.05437     -1610.8152      0             -1343.4625     -0.32546      
SHAKE stats (type/ave/delta/count) on step 690000
Bond:   1   1         1.23214e-06     6906
Angle:  1   109.47    9.80136e-05     3453
    690000   131.62158     -1614.1599      0             -1349.6862     -10.795794    
SHAKE stats (type/ave/delta/count) on step 700000
Bond:   1   1         1.28556e-06     6906
Angle:  1   109.47    9.10023e-05     3453
    700000   131.65611     -1618.7293      0             -1354.1863     -14.258023    
SHAKE stats (type/ave/delta/count) on step 710000
Bond:   1   1         1.14079e-06     6906
Angle:  1   109.47    0.000101164     3453
    710000   131.91821     -1619.6526      0             -1354.5829     -1.3079851    
SHAKE stats (type/ave/delta/count) on step 720000
Bond:   1   1         1.33935e-06     6906
Angle:  1   109.47    9.95571e-05     3453
    720000   133.356       -1610.5162      0             -1342.5575     -18.244502    
SHAKE stats (type/ave/delta/count) on step 730000
Bond:   1   1         1.6314e-06      6906
Angle:  1   109.47    0.000103925     3453
    730000   131.85698     -1609.7623      0             -1344.8156     -14.63453     
SHAKE stats (type/ave/delta/count) on step 740000
Bond:   1   1         1.35269e-06     6906
Angle:  1   109.47    0.000114664     3453
    740000   134.39758     -1613.0488      0             -1342.9971     -2.1447704    
SHAKE stats (type/ave/delta/count) on step 750000
Bond:   1   1         1.2868e-06      6906
Angle:  1   109.47    0.000100928     3453
    750000   134.54015     -1614.6162      0             -1344.2781     -13.918618    
SHAKE stats (type/ave/delta/count) on step 760000
Bond:   1   1         1.51173e-06     6906
Angle:  1   109.47    0.000106468     3453
    760000   132.88902     -1606.2462      0             -1339.2258     -5.1224334    
SHAKE stats (type/ave/delta/count) on step 770000
Bond:   1   1         1.27726e-06     6906
Angle:  1   109.47    9.11309e-05     3453
    770000   133.22678     -1608.8377      0             -1341.1387     -18.144121    
SHAKE stats (type/ave/delta/count) on step 780000
Bond:   1   1         1.31435e-06     6906
Angle:  1   109.47    0.000102191     3453
    780000   132.91805     -1613.7297      0             -1346.651      -9.1394646    
SHAKE stats (type/ave/delta/count) on step 790000
Bond:   1   1         1.3216e-06      6906
Angle:  1   109.47    9.35907e-05     3453
    790000   132.32157     -1608.2452      0             -1342.365      -9.3345208    
SHAKE stats (type/ave/delta/count) on step 800000
Bond:   1   1         1.12355e-06     6906
Angle:  1   109.47    9.52152e-05     3453
    800000   131.8732      -1609.2426      0             -1344.2633      17.693831    
SHAKE stats (type/ave/delta/count) on step 810000
Bond:   1   1         1.12495e-06     6906
Angle:  1   109.47    0.000101699     3453
    810000   132.18388     -1605.289       0             -1339.6854     -25.131567    
SHAKE stats (type/ave/delta/count) on step 820000
Bond:   1   1         1.32093e-06     6906
Angle:  1   109.47    0.000149267     3453
    820000   130.92688     -1615.0267      0             -1351.9489     -3.1251446    
SHAKE stats (type/ave/delta/count) on step 830000
Bond:   1   1         1.83249e-06     6906
Angle:  1   109.47    0.000139931     3453
    830000   132.15099     -1607.1225      0             -1341.585      -27.55841     
SHAKE stats (type/ave/delta/count) on step 840000
Bond:   1   1         1.21059e-06     6906
Angle:  1   109.47    9.62181e-05     3453
    840000   133.38578     -1615.9369      0             -1347.9183     -11.473001    
SHAKE stats (type/ave/delta/count) on step 850000
Bond:   1   1         1.23901e-06     6906
Angle:  1   109.47    9.87768e-05     3453
    850000   133.31042     -1613.6081      0             -1345.7409     -5.6166451    
SHAKE stats (type/ave/delta/count) on step 860000
Bond:   1   1         1.5301e-06      6906
Angle:  1   109.47    0.000103667     3453
    860000   132.0974      -1614.414       0             -1348.9842     -18.011029    
SHAKE stats (type/ave/delta/count) on step 870000
Bond:   1   1         1.14912e-06     6906
Angle:  1   109.47    0.000100571     3453
    870000   134.51822     -1611.718       0             -1341.424      -14.174095    
SHAKE stats (type/ave/delta/count) on step 880000
Bond:   1   1         1.14176e-06     6906
Angle:  1   109.47    8.88204e-05     3453
    880000   130.38187     -1609.1516      0             -1347.1689     -11.485102    
SHAKE stats (type/ave/delta/count) on step 890000
Bond:   1   1         1.28795e-06     6906
Angle:  1   109.47    0.000103368     3453
    890000   133.54598     -1614.4264      0             -1346.086      -9.4514131    
SHAKE stats (type/ave/delta/count) on step 900000
Bond:   1   1         1.27856e-06     6906
Angle:  1   109.47    9.33588e-05     3453
    900000   133.21747     -1607.3618      0             -1339.6814     -6.5273275    
SHAKE stats (type/ave/delta/count) on step 910000
Bond:   1   1         1.23379e-06     6906
Angle:  1   109.47    0.000109287     3453
    910000   134.34237     -1615.3337      0             -1345.393      -13.930324    
SHAKE stats (type/ave/delta/count) on step 920000
Bond:   1   1         1.23188e-06     6906
Angle:  1   109.47    0.000108444     3453
    920000   133.61925     -1608.1812      0             -1339.6935     -14.787533    
SHAKE stats (type/ave/delta/count) on step 930000
Bond:   1   1         1.53645e-06     6906
Angle:  1   109.47    0.00013742      3453
    930000   134.61815     -1601.7664      0             -1331.2716     -5.0962829    
SHAKE stats (type/ave/delta/count) on step 940000
Bond:   1   1         1.23826e-06     6906
Angle:  1   109.47    0.000104122     3453
    940000   133.95301     -1615.2364      0             -1346.078      -9.2583824    
SHAKE stats (type/ave/delta/count) on step 950000
Bond:   1   1         1.33444e-06     6906
Angle:  1   109.47    9.07887e-05     3453
    950000   132.46284     -1610.4078      0             -1344.2437     -10.117589    
SHAKE stats (type/ave/delta/count) on step 960000
Bond:   1   1         1.4273e-06      6906
Angle:  1   109.47    0.00011444      3453
    960000   133.53796     -1610.6822      0             -1342.3579     -10.543628    
SHAKE stats (type/ave/delta/count) on step 970000
Bond:   1   1         1.5362e-06      6906
Angle:  1   109.47    0.000116131     3453
    970000   134.81826     -1615.3032      0             -1344.4063     -6.5478115    
SHAKE stats (type/ave/delta/count) on step 980000
Bond:   1   1         1.26227e-06     6906
Angle:  1   109.47    0.000114102     3453
    980000   132.65586     -1617.0062      0             -1350.4543     -5.2970882    
SHAKE stats (type/ave/delta/count) on step 990000
Bond:   1   1         1.97364e-06     6906
Angle:  1   109.47    0.000116349     3453
    990000   134.23753     -1608.9998      0             -1339.2698     -6.7097685    
SHAKE stats (type/ave/delta/count) on step 1000000
Bond:   1   1         1.32217e-06     6906
Angle:  1   109.47    9.96789e-05     3453
   1000000   132.6958      -1611.5584      0             -1344.9262     -18.323686    
SHAKE stats (type/ave/delta/count) on step 1010000
Bond:   1   1         1.89774e-06     6906
Angle:  1   109.47    0.00011074      3453
   1010000   132.85265     -1614.0299      0             -1347.0826     -6.5305875    
SHAKE stats (type/ave/delta/count) on step 1020000
Bond:   1   1         1.37233e-06     6906
Angle:  1   109.47    0.000102488     3453
   1020000   133.66272     -1611.7757      0             -1343.2007     -16.778711    
SHAKE stats (type/ave/delta/count) on step 1030000
Bond:   1   1         1.54484e-06     6906
Angle:  1   109.47    9.70848e-05     3453
   1030000   132.01281     -1614.5659      0             -1349.3061     -19.159116    
SHAKE stats (type/ave/delta/count) on step 1040000
Bond:   1   1         1.59486e-06     6906
Angle:  1   109.47    0.000131207     3453
   1040000   136.35718     -1610.9935      0             -1337.0043     -16.647129    
SHAKE stats (type/ave/delta/count) on step 1050000
Bond:   1   1         1.57458e-06     6906
Angle:  1   109.47    0.000101433     3453
   1050000   132.71448     -1613.5494      0             -1346.8797     -8.2627551    
SHAKE stats (type/ave/delta/count) on step 1060000
Bond:   1   1         1.57676e-06     6906
Angle:  1   109.47    0.000119306     3453
   1060000   132.90254     -1610.3942      0             -1343.3466     -20.80671     
SHAKE stats (type/ave/delta/count) on step 1070000
Bond:   1   1         1.3835e-06      6906
Angle:  1   109.47    9.83143e-05     3453
   1070000   132.77613     -1604.3928      0             -1337.5992     -4.1470764    
SHAKE stats (type/ave/delta/count) on step 1080000
Bond:   1   1         1.10152e-06     6906
Angle:  1   109.47    0.00010204      3453
   1080000   131.97915     -1602.6203      0             -1337.4281     -2.2013586    
SHAKE stats (type/ave/delta/count) on step 1090000
Bond:   1   1         1.17585e-06     6906
Angle:  1   109.47    9.39968e-05     3453
   1090000   130.85187     -1615.4121      0             -1352.485      -12.981275    
SHAKE stats (type/ave/delta/count) on step 1100000
Bond:   1   1         1.15174e-06     6906
Angle:  1   109.47    8.72014e-05     3453
   1100000   133.34312     -1613.6139      0             -1345.681      -19.266381    
SHAKE stats (type/ave/delta/count) on step 1110000
Bond:   1   1         1.2896e-06      6906
Angle:  1   109.47    0.000102008     3453
   1110000   135.08156     -1609.5239      0             -1338.0979     -11.048658    
SHAKE stats (type/ave/delta/count) on step 1120000
Bond:   1   1         1.40391e-06     6906
Angle:  1   109.47    9.67721e-05     3453
   1120000   133.28016     -1612.367       0             -1344.5606     -7.3397246    
SHAKE stats (type/ave/delta/count) on step 1130000
Bond:   1   1         1.19654e-06     6906
Angle:  1   109.47    9.15737e-05     3453
   1130000   132.7224      -1613.2205      0             -1346.5349     -14.037038    
SHAKE stats (type/ave/delta/count) on step 1140000
Bond:   1   1         1.20217e-06     6906
Angle:  1   109.47    9.90652e-05     3453
   1140000   133.22544     -1613.1911      0             -1345.4947     -3.476093     
SHAKE stats (type/ave/delta/count) on step 1150000
Bond:   1   1         1.32788e-06     6906
Angle:  1   109.47    0.000103698     3453
   1150000   133.26523     -1612.2253      0             -1344.449      -23.290472    
SHAKE stats (type/ave/delta/count) on step 1160000
Bond:   1   1         1.25081e-06     6906
Angle:  1   109.47    0.000106168     3453
   1160000   130.14538     -1608.8524      0             -1347.345      -10.373991    
SHAKE stats (type/ave/delta/count) on step 1170000
Bond:   1   1         1.08064e-06     6906
Angle:  1   109.47    0.000100498     3453
   1170000   133.26007     -1613.1695      0             -1345.4035     -16.643327    
SHAKE stats (type/ave/delta/count) on step 1180000
Bond:   1   1         1.57125e-06     6906
Angle:  1   109.47    0.000114954     3453
   1180000   131.59643     -1611.7228      0             -1347.2996     -10.722063    
SHAKE stats (type/ave/delta/count) on step 1190000
Bond:   1   1         1.30021e-06     6906
Angle:  1   109.47    9.47781e-05     3453
   1190000   133.08728     -1607.4313      0             -1340.0125      5.6556988    
SHAKE stats (type/ave/delta/count) on step 1200000
Bond:   1   1         1.43492e-06     6906
Angle:  1   109.47    9.102e-05       3453
   1200000   134.82271     -1602.4129      0             -1331.5071     -1.3403524    
SHAKE stats (type/ave/delta/count) on step 1210000
Bond:   1   1         1.67147e-06     6906
Angle:  1   109.47    0.000112885     3453
   1210000   132.71323     -1604.0395      0             -1337.3723      9.7459225    
SHAKE stats (type/ave/delta/count) on step 1220000
Bond:   1   1         1.62773e-06     6906
Angle:  1   109.47    0.000105524     3453
   1220000   133.65434     -1617.5757      0             -1349.0175      3.5258521    
SHAKE stats (type/ave/delta/count) on step 1230000
Bond:   1   1         1.63757e-06     6906
Angle:  1   109.47    0.000129226     3453
   1230000   132.63638     -1614.2171      0             -1347.7043     -10.800642    
SHAKE stats (type/ave/delta/count) on step 1240000
Bond:   1   1         1.15382e-06     6906
Angle:  1   109.47    0.000104643     3453
   1240000   132.21541     -1610.4133      0             -1344.7464     -15.582765    
SHAKE stats (type/ave/delta/count) on step 1250000
Bond:   1   1         1.20479e-06     6906
Angle:  1   109.47    0.000100595     3453
   1250000   132.48178     -1607.6727      0             -1341.4705     -16.03956     
SHAKE stats (type/ave/delta/count) on step 1260000
Bond:   1   1         1.44775e-06     6906
Angle:  1   109.47    0.000112789     3453
   1260000   134.24696     -1613.9361      0             -1344.1871     -11.131397    
SHAKE stats (type/ave/delta/count) on step 1270000
Bond:   1   1         1.36137e-06     6906
Angle:  1   109.47    0.000102865     3453
   1270000   133.05963     -1618.3097      0             -1350.9465     -8.2866169    
SHAKE stats (type/ave/delta/count) on step 1280000
Bond:   1   1         1.27192e-06     6906
Angle:  1   109.47    9.97333e-05     3453
   1280000   132.11137     -1613.6583      0             -1348.2005     -13.326085    
SHAKE stats (type/ave/delta/count) on step 1290000
Bond:   1   1         1.21057e-06     6906
Angle:  1   109.47    0.000118776     3453
   1290000   135.49848     -1612.5484      0             -1340.2846     -16.744068    
SHAKE stats (type/ave/delta/count) on step 1300000
Bond:   1   1         1.24128e-06     6906
Angle:  1   109.47    9.31746e-05     3453
   1300000   131.41547     -1611.7599      0             -1347.7004     -10.767174    
SHAKE stats (type/ave/delta/count) on step 1310000
Bond:   1   1         1.59375e-06     6906
Angle:  1   109.47    0.000119262     3453
   1310000   134.67755     -1615.4626      0             -1344.8484     -3.1755655    
SHAKE stats (type/ave/delta/count) on step 1320000
Bond:   1   1         1.29712e-06     6906
Angle:  1   109.47    9.73949e-05     3453
   1320000   133.32809     -1606.8508      0             -1338.9481     -16.208924    
SHAKE stats (type/ave/delta/count) on step 1330000
Bond:   1   1         1.10098e-06     6906
Angle:  1   109.47    9.14977e-05     3453
   1330000   133.55752     -1615.099       0             -1346.7354     -6.7911551    
SHAKE stats (type/ave/delta/count) on step 1340000
Bond:   1   1         1.24475e-06     6906
Angle:  1   109.47    0.000122932     3453
   1340000   133.95993     -1609.936       0             -1340.7637      1.9690501    
SHAKE stats (type/ave/delta/count) on step 1350000
Bond:   1   1         1.20538e-06     6906
Angle:  1   109.47    9.12385e-05     3453
   1350000   133.24482     -1610.9479      0             -1343.2126     -6.6332834    
SHAKE stats (type/ave/delta/count) on step 1360000
Bond:   1   1         1.4854e-06      6906
Angle:  1   109.47    0.000101875     3453
   1360000   133.92614     -1612.0977      0             -1342.9934     -9.7955814    
SHAKE stats (type/ave/delta/count) on step 1370000
Bond:   1   1         1.58829e-06     6906
Angle:  1   109.47    0.000118128     3453
   1370000   132.51512     -1610.1242      0             -1343.855      -6.8684078    
SHAKE stats (type/ave/delta/count) on step 1380000
Bond:   1   1         1.21933e-06     6906
Angle:  1   109.47    9.40511e-05     3453
   1380000   133.32313     -1617.2364      0             -1349.3437     -22.464174    
SHAKE stats (type/ave/delta/count) on step 1390000
Bond:   1   1         1.21396e-06     6906
Angle:  1   109.47    8.53607e-05     3453
   1390000   132.1365      -1614.6609      0             -1349.1525     -1.4433801    
SHAKE stats (type/ave/delta/count) on step 1400000
Bond:   1   1         1.12261e-06     6906
Angle:  1   109.47    0.000100063     3453
   1400000   134.4183      -1601.617       0             -1331.5237     -20.983514    
SHAKE stats (type/ave/delta/count) on step 1410000
Bond:   1   1         1.2595e-06      6906
Angle:  1   109.47    9.94728e-05     3453
   1410000   133.46852     -1612.0578      0             -1343.873      -13.180743    
SHAKE stats (type/ave/delta/count) on step 1420000
Bond:   1   1         1.18202e-06     6906
Angle:  1   109.47    9.64276e-05     3453
   1420000   132.21599     -1614.5316      0             -1348.8635     -12.596384    
SHAKE stats (type/ave/delta/count) on step 1430000
Bond:   1   1         1.17604e-06     6906
Angle:  1   109.47    0.000104037     3453
   1430000   134.00138     -1617.2006      0             -1347.945      -21.239542    
SHAKE stats (type/ave/delta/count) on step 1440000
Bond:   1   1         1.13909e-06     6906
Angle:  1   109.47    9.13021e-05     3453
   1440000   134.67734     -1613.6152      0             -1343.0014     -0.79308774   
SHAKE stats (type/ave/delta/count) on step 1450000
Bond:   1   1         1.15062e-06     6906
Angle:  1   109.47    9.92319e-05     3453
   1450000   132.19527     -1610.897       0             -1345.2706     -16.395874    
SHAKE stats (type/ave/delta/count) on step 1460000
Bond:   1   1         1.37484e-06     6906
Angle:  1   109.47    0.000107358     3453
   1460000   133.61925     -1617.2832      0             -1348.7955     -16.832274    
SHAKE stats (type/ave/delta/count) on step 1470000
Bond:   1   1         1.7663e-06      6906
Angle:  1   109.47    0.000125477     3453
   1470000   133.19254     -1613.1359      0             -1345.5056     -12.400996    
SHAKE stats (type/ave/delta/count) on step 1480000
Bond:   1   1         1.54772e-06     6906
Angle:  1   109.47    0.000104825     3453
   1480000   133.09381     -1618.2673      0             -1350.8354     -0.57480385   
SHAKE stats (type/ave/delta/count) on step 1490000
Bond:   1   1         1.32141e-06     6906
Angle:  1   109.47    0.000113807     3453
   1490000   131.05146     -1613.1625      0             -1349.8344     -15.31636     
SHAKE stats (type/ave/delta/count) on step 1500000
Bond:   1   1         1.17927e-06     6906
Angle:  1   109.47    9.44967e-05     3453
   1500000   131.04587     -1611.7393      0             -1348.4224     -9.4750424    
SHAKE stats (type/ave/delta/count) on step 1510000
Bond:   1   1         1.24209e-06     6906
Angle:  1   109.47    9.61502e-05     3453
   1510000   134.64436     -1610.2354      0             -1339.6879     -11.765322    
SHAKE stats (type/ave/delta/count) on step 1520000
Bond:   1   1         1.26967e-06     6906
Angle:  1   109.47    9.90848e-05     3453
   1520000   132.16066     -1614.9789      0             -1349.422      -10.284098    
SHAKE stats (type/ave/delta/count) on step 1530000
Bond:   1   1         1.2342e-06      6906
Angle:  1   109.47    9.17691e-05     3453
   1530000   135.52372     -1614.3308      0             -1342.0163     -3.2293898    
SHAKE stats (type/ave/delta/count) on step 1540000
Bond:   1   1         1.16514e-06     6906
Angle:  1   109.47    9.27598e-05     3453
   1540000   134.36894     -1618.7083      0             -1348.7142     -12.035998    
SHAKE stats (type/ave/delta/count) on step 1550000
Bond:   1   1         1.40128e-06     6906
Angle:  1   109.47    0.000103189     3453
   1550000   132.7996      -1609.5346      0             -1342.6939     -1.7080593    
SHAKE stats (type/ave/delta/count) on step 1560000
Bond:   1   1         1.23706e-06     6906
Angle:  1   109.47    0.000100195     3453
   1560000   132.5105      -1613.2355      0             -1346.9757     -16.286435    
SHAKE stats (type/ave/delta/count) on step 1570000
Bond:   1   1         1.2948e-06      6906
Angle:  1   109.47    0.000110137     3453
   1570000   133.76185     -1621.7037      0             -1352.9294     -5.582439     
SHAKE stats (type/ave/delta/count) on step 1580000
Bond:   1   1         1.61603e-06     6906
Angle:  1   109.47    9.92637e-05     3453
   1580000   135.76322     -1612.6083      0             -1339.8126     -7.6723201    
SHAKE stats (type/ave/delta/count) on step 1590000
Bond:   1   1         1.25356e-06     6906
Angle:  1   109.47    9.5373e-05      3453
   1590000   132.46362     -1611.4515      0             -1345.2858      6.2506326    
SHAKE stats (type/ave/delta/count) on step 1600000
Bond:   1   1         1.16433e-06     6906
Angle:  1   109.47    9.98365e-05     3453
   1600000   132.79708     -1603.5853      0             -1336.7496     -10.635839    
SHAKE stats (type/ave/delta/count) on step 1610000
Bond:   1   1         1.33654e-06     6906
Angle:  1   109.47    0.000100964     3453
   1610000   134.56995     -1613.846       0             -1343.4481      6.6147163    
SHAKE stats (type/ave/delta/count) on step 1620000
Bond:   1   1         1.45607e-06     6906
Angle:  1   109.47    9.00922e-05     3453
   1620000   134.0082      -1610.7741      0             -1341.5048     -10.629074    
SHAKE stats (type/ave/delta/count) on step 1630000
Bond:   1   1         1.34819e-06     6906
Angle:  1   109.47    0.00010134      3453
   1630000   132.90172     -1612.3314      0             -1345.2854     -17.969558    
SHAKE stats (type/ave/delta/count) on step 1640000
Bond:   1   1         1.30667e-06     6906
Angle:  1   109.47    9.37396e-05     3453
   1640000   129.68542     -1614.7406      0             -1354.1573     -15.697604    
SHAKE stats (type/ave/delta/count) on step 1650000
Bond:   1   1         1.13721e-06     6906
Angle:  1   109.47    9.92067e-05     3453
   1650000   134.24694     -1607.8486      0             -1338.0997     -18.997926    
SHAKE stats (type/ave/delta/count) on step 1660000
Bond:   1   1         1.18806e-06     6906
Angle:  1   109.47    0.00011876      3453
   1660000   133.95238     -1608.568       0             -1339.4109      3.0625694    
SHAKE stats (type/ave/delta/count) on step 1670000
Bond:   1   1         1.15262e-06     6906
Angle:  1   109.47    9.73743e-05     3453
   1670000   136.14231     -1614.2154      0             -1340.658      -12.341547    
SHAKE stats (type/ave/delta/count) on step 1680000
Bond:   1   1         1.19942e-06     6906
Angle:  1   109.47    9.91549e-05     3453
   1680000   133.72939     -1612.6562      0             -1343.9472     -16.993027    
SHAKE stats (type/ave/delta/count) on step 1690000
Bond:   1   1         1.12672e-06     6906
Angle:  1   109.47    0.000101338     3453
   1690000   132.23207     -1616.713       0             -1351.0126      1.2915559    
SHAKE stats (type/ave/delta/count) on step 1700000
Bond:   1   1         1.14276e-06     6906
Angle:  1   109.47    9.40562e-05     3453
   1700000   132.68107     -1617.7328      0             -1351.1303     -8.7426292    
SHAKE stats (type/ave/delta/count) on step 1710000
Bond:   1   1         1.18861e-06     6906
Angle:  1   109.47    0.000101041     3453
   1710000   130.71348     -1608.5341      0             -1345.8851     -11.033621    
SHAKE stats (type/ave/delta/count) on step 1720000
Bond:   1   1         1.22646e-06     6906
Angle:  1   109.47    9.85807e-05     3453
   1720000   132.05725     -1612.9681      0             -1347.619      -14.963706    
SHAKE stats (type/ave/delta/count) on step 1730000
Bond:   1   1         1.48373e-06     6906
Angle:  1   109.47    9.72241e-05     3453
   1730000   132.45763     -1613.8125      0             -1347.6589     -7.5707643    
SHAKE stats (type/ave/delta/count) on step 1740000
Bond:   1   1         1.27454e-06     6906
Angle:  1   109.47    9.86051e-05     3453
   1740000   131.67953     -1614.3667      0             -1349.7766     -10.627349    
SHAKE stats (type/ave/delta/count) on step 1750000
Bond:   1   1         1.43427e-06     6906
Angle:  1   109.47    9.44878e-05     3453
   1750000   134.29679     -1613.9606      0             -1344.1115     -9.9684191    
SHAKE stats (type/ave/delta/count) on step 1760000
Bond:   1   1         1.18876e-06     6906
Angle:  1   109.47    0.000100086     3453
   1760000   135.4745      -1609.2576      0             -1337.042      -5.786979     
SHAKE stats (type/ave/delta/count) on step 1770000
Bond:   1   1         1.31363e-06     6906
Angle:  1   109.47    9.44208e-05     3453
   1770000   135.78454     -1610.0185      0             -1337.18       -16.642371    
SHAKE stats (type/ave/delta/count) on step 1780000
Bond:   1   1         1.3212e-06      6906
Angle:  1   109.47    9.65923e-05     3453
   1780000   132.34884     -1610.4426      0             -1344.5076     -0.51906245   
SHAKE stats (type/ave/delta/count) on step 1790000
Bond:   1   1         1.4332e-06      6906
Angle:  1   109.47    0.000102753     3453
   1790000   135.34691     -1614.2466      0             -1342.2874     -5.1860126    
SHAKE stats (type/ave/delta/count) on step 1800000
Bond:   1   1         1.54169e-06     6906
Angle:  1   109.47    0.00010203      3453
   1800000   134.55508     -1619.23        0             -1348.8619     -8.3444039    
SHAKE stats (type/ave/delta/count) on step 1810000
Bond:   1   1         1.79069e-06     6906
Angle:  1   109.47    0.000127328     3453
   1810000   133.70914     -1612.519       0             -1343.8507     -16.176442    
SHAKE stats (type/ave/delta/count) on step 1820000
Bond:   1   1         1.16741e-06     6906
Angle:  1   109.47    8.94113e-05     3453
   1820000   135.22313     -1616.0418      0             -1344.3313     -2.2075924    
SHAKE stats (type/ave/delta/count) on step 1830000
Bond:   1   1         1.30893e-06     6906
Angle:  1   109.47    9.67252e-05     3453
   1830000   132.62036     -1611.6264      0             -1345.1458     -16.980283    
SHAKE stats (type/ave/delta/count) on step 1840000
Bond:   1   1         1.25054e-06     6906
Angle:  1   109.47    9.26006e-05     3453
   1840000   133.42342     -1607.0022      0             -1338.908      -11.575673    
SHAKE stats (type/ave/delta/count) on step 1850000
Bond:   1   1         1.153e-06       6906
Angle:  1   109.47    9.99253e-05     3453
   1850000   132.41756     -1611.8725      0             -1345.7994     -13.975839    
SHAKE stats (type/ave/delta/count) on step 1860000
Bond:   1   1         1.15702e-06     6906
Angle:  1   109.47    0.000107692     3453
   1860000   132.25687     -1617.1043      0             -1351.3541     -5.3808313    
SHAKE stats (type/ave/delta/count) on step 1870000
Bond:   1   1         1.28409e-06     6906
Angle:  1   109.47    0.000112344     3453
   1870000   131.52338     -1613.0583      0             -1348.782      -9.5075835    
SHAKE stats (type/ave/delta/count) on step 1880000
Bond:   1   1         1.67639e-06     6906
Angle:  1   109.47    0.000140298     3453
   1880000   135.38362     -1615.8902      0             -1343.8572     -3.2260068    
SHAKE stats (type/ave/delta/count) on step 1890000
Bond:   1   1         1.13038e-06     6906
Angle:  1   109.47    0.000115222     3453
   1890000   131.75799     -1607.3823      0             -1342.6345     -17.269586    
SHAKE stats (type/ave/delta/count) on step 1900000
Bond:   1   1         1.18556e-06     6906
Angle:  1   109.47    0.000108365     3453
   1900000   132.4609      -1610.6126      0             -1344.4524     -18.741706    
SHAKE stats (type/ave/delta/count) on step 1910000
Bond:   1   1         1.37827e-06     6906
Angle:  1   109.47    8.97738e-05     3453
   1910000   131.44034     -1614.1256      0             -1350.016      -6.6965729    
SHAKE stats (type/ave/delta/count) on step 1920000
Bond:   1   1         1.45024e-06     6906
Angle:  1   109.47    9.56051e-05     3453
   1920000   133.55042     -1611.7318      0             -1343.3824     -15.526266    
SHAKE stats (type/ave/delta/count) on step 1930000
Bond:   1   1         1.46378e-06     6906
Angle:  1   109.47    0.000113873     3453
   1930000   134.28974     -1614.5815      0             -1344.7466     -12.990906    
SHAKE stats (type/ave/delta/count) on step 1940000
Bond:   1   1         1.27961e-06     6906
Angle:  1   109.47    9.04728e-05     3453
   1940000   131.57124     -1611.0205      0             -1346.648       0.90319082   
SHAKE stats (type/ave/delta/count) on step 1950000
Bond:   1   1         1.19773e-06     6906
Angle:  1   109.47    9.98317e-05     3453
   1950000   129.86912     -1608.9719      0             -1348.0195     -11.424673    
SHAKE stats (type/ave/delta/count) on step 1960000
Bond:   1   1         1.38114e-06     6906
Angle:  1   109.47    0.000106776     3453
   1960000   131.40686     -1611.4339      0             -1347.3917     -6.8137765    
SHAKE stats (type/ave/delta/count) on step 1970000
Bond:   1   1         1.10831e-06     6906
Angle:  1   109.47    9.85014e-05     3453
   1970000   131.99664     -1614.4969      0             -1349.2696     -17.774318    
SHAKE stats (type/ave/delta/count) on step 1980000
Bond:   1   1         1.34002e-06     6906
Angle:  1   109.47    9.88516e-05     3453
   1980000   133.75015     -1614.9137      0             -1346.163       6.6897903    
SHAKE stats (type/ave/delta/count) on step 1990000
Bond:   1   1         1.73535e-06     6906
Angle:  1   109.47    0.000120846     3453
   1990000   131.41307     -1615.8071      0             -1351.7523     -17.249468    
SHAKE stats (type/ave/delta/count) on step 2000000
Bond:   1   1         1.2851e-06      6906
Angle:  1   109.47    9.97973e-05     3453
   2000000   131.79128     -1614.3323      0             -1349.5176     -0.085960705  
SHAKE stats (type/ave/delta/count) on step 2010000
Bond:   1   1         1.21884e-06     6906
Angle:  1   109.47    0.000107675     3453
   2010000   133.87063     -1618.1146      0             -1349.1218     -8.3832611    
SHAKE stats (type/ave/delta/count) on step 2020000
Bond:   1   1         1.57359e-06     6906
Angle:  1   109.47    9.30664e-05     3453
   2020000   134.73837     -1606.5523      0             -1335.8158     -14.038865    
SHAKE stats (type/ave/delta/count) on step 2030000
Bond:   1   1         1.62928e-06     6906
Angle:  1   109.47    0.000116577     3453
   2030000   133.65247     -1607.6629      0             -1339.1085     -17.812931    
SHAKE stats (type/ave/delta/count) on step 2040000
Bond:   1   1         1.21936e-06     6906
Angle:  1   109.47    9.10653e-05     3453
   2040000   134.77898     -1611.4777      0             -1340.6597      5.3292174    
SHAKE stats (type/ave/delta/count) on step 2050000
Bond:   1   1         1.02081e-06     6906
Angle:  1   109.47    9.8064e-05      3453
   2050000   133.02488     -1613.394       0             -1346.1006     -14.415577    
SHAKE stats (type/ave/delta/count) on step 2060000
Bond:   1   1         1.32636e-06     6906
Angle:  1   109.47    0.00010402      3453
   2060000   131.52064     -1612.7544      0             -1348.4836     -9.4930647    
SHAKE stats (type/ave/delta/count) on step 2070000
Bond:   1   1         1.3049e-06      6906
Angle:  1   109.47    9.5992e-05      3453
   2070000   133.35333     -1622.6879      0             -1354.7346     -12.751386    
SHAKE stats (type/ave/delta/count) on step 2080000
Bond:   1   1         1.37633e-06     6906
Angle:  1   109.47    0.00011961      3453
   2080000   132.44107     -1612.4309      0             -1346.3106     -15.620022    
SHAKE stats (type/ave/delta/count) on step 2090000
Bond:   1   1         1.62559e-06     6906
Angle:  1   109.47    0.000129888     3453
   2090000   134.37323     -1612.7411      0             -1342.7384     -5.2856548    
SHAKE stats (type/ave/delta/count) on step 2100000
Bond:   1   1         1.35522e-06     6906
Angle:  1   109.47    0.000100881     3453
   2100000   133.62958     -1609.8091      0             -1341.3006      2.1232078    
SHAKE stats (type/ave/delta/count) on step 2110000
Bond:   1   1         1.09376e-06     6906
Angle:  1   109.47    9.6977e-05      3453
   2110000   133.70788     -1610.2595      0             -1341.5937     -6.8414369    
SHAKE stats (type/ave/delta/count) on step 2120000
Bond:   1   1         1.11274e-06     6906
Angle:  1   109.47    8.8916e-05      3453
   2120000   133.17142     -1612.0767      0             -1344.4889     -7.5790303    
SHAKE stats (type/ave/delta/count) on step 2130000
Bond:   1   1         1.7129e-06      6906
Angle:  1   109.47    9.99843e-05     3453
   2130000   132.58895     -1610.7927      0             -1344.3752     -19.480321    
SHAKE stats (type/ave/delta/count) on step 2140000
Bond:   1   1         1.51442e-06     6906
Angle:  1   109.47    0.000102173     3453
   2140000   134.61683     -1608.6045      0             -1338.1123     -0.28892987   
SHAKE stats (type/ave/delta/count) on step 2150000
Bond:   1   1         1.20193e-06     6906
Angle:  1   109.47    0.000106791     3453
   2150000   135.06156     -1617.0695      0             -1345.6837     -15.687954    
SHAKE stats (type/ave/delta/count) on step 2160000
Bond:   1   1         1.14899e-06     6906
Angle:  1   109.47    8.89529e-05     3453
   2160000   131.77026     -1611.9005      0             -1347.1281     -12.176092    
SHAKE stats (type/ave/delta/count) on step 2170000
Bond:   1   1         1.19949e-06     6906
Angle:  1   109.47    8.85405e-05     3453
   2170000   134.02033     -1614.5021      0             -1345.2085     -5.6155144    
SHAKE stats (type/ave/delta/count) on step 2180000
Bond:   1   1         1.28474e-06     6906
Angle:  1   109.47    9.76475e-05     3453
   2180000   133.92391     -1606.285       0             -1337.1851     -13.340109    
SHAKE stats (type/ave/delta/count) on step 2190000
Bond:   1   1         1.30472e-06     6906
Angle:  1   109.47    0.000114314     3453
   2190000   134.73664     -1606.327       0             -1335.5941     -1.0738277    
SHAKE stats (type/ave/delta/count) on step 2200000
Bond:   1   1         1.68187e-06     6906
Angle:  1   109.47    0.000113024     3453
   2200000   133.27431     -1609.0991      0             -1341.3045     -6.8758417    
SHAKE stats (type/ave/delta/count) on step 2210000
Bond:   1   1         1.29708e-06     6906
Angle:  1   109.47    0.000128764     3453
   2210000   131.83797     -1612.2905      0             -1347.3821     -14.342616    
SHAKE stats (type/ave/delta/count) on step 2220000
Bond:   1   1         1.21169e-06     6906
Angle:  1   109.47    0.00010062      3453
   2220000   132.40174     -1618.0545      0             -1352.0132     -1.7598695    
SHAKE stats (type/ave/delta/count) on step 2230000
Bond:   1   1         1.15738e-06     6906
Angle:  1   109.47    0.000100717     3453
   2230000   132.51099     -1612.4097      0             -1346.1488     -8.8948533    
SHAKE stats (type/ave/delta/count) on step 2240000
Bond:   1   1         1.27645e-06     6906
Angle:  1   109.47    9.71508e-05     3453
   2240000   130.96359     -1605.6013      0             -1342.4498     -8.173317     
SHAKE stats (type/ave/delta/count) on step 2250000
Bond:   1   1         1.35187e-06     6906
Angle:  1   109.47    0.000102528     3453
   2250000   133.13285     -1608.0947      0             -1340.5843     -10.501601    
SHAKE stats (type/ave/delta/count) on step 2260000
Bond:   1   1         1.19637e-06     6906
Angle:  1   109.47    9.96162e-05     3453
   2260000   133.66524     -1618.0919      0             -1349.5118     -5.916934     
SHAKE stats (type/ave/delta/count) on step 2270000
Bond:   1   1         1.30614e-06     6906
Angle:  1   109.47    0.000107367     3453
   2270000   131.58829     -1616.555       0             -1352.1482     -9.2890137    
SHAKE stats (type/ave/delta/count) on step 2280000
Bond:   1   1         1.2013e-06      6906
Angle:  1   109.47    9.83726e-05     3453
   2280000   131.26664     -1614.8554      0             -1351.0949     -5.0325676    
SHAKE stats (type/ave/delta/count) on step 2290000
Bond:   1   1         1.22705e-06     6906
Angle:  1   109.47    0.000108327     3453
   2290000   135.38145     -1610.0433      0             -1338.0148     -20.626605    
SHAKE stats (type/ave/delta/count) on step 2300000
Bond:   1   1         1.52857e-06     6906
Angle:  1   109.47    0.000112875     3453
   2300000   133.12002     -1613.9968      0             -1346.5122     -9.2439216    
SHAKE stats (type/ave/delta/count) on step 2310000
Bond:   1   1         1.14563e-06     6906
Angle:  1   109.47    0.000101616     3453
   2310000   133.92045     -1611.0324      0             -1341.9395     -13.150106    
SHAKE stats (type/ave/delta/count) on step 2320000
Bond:   1   1         1.64419e-06     6906
Angle:  1   109.47    0.000134747     3453
   2320000   131.71893     -1617.5637      0             -1352.8944     -10.470173    
SHAKE stats (type/ave/delta/count) on step 2330000
Bond:   1   1         1.45749e-06     6906
Angle:  1   109.47    9.81892e-05     3453
   2330000   132.70701     -1613.6123      0             -1346.9576     -9.2509856    
SHAKE stats (type/ave/delta/count) on step 2340000
Bond:   1   1         1.17609e-06     6906
Angle:  1   109.47    8.81002e-05     3453
   2340000   132.96018     -1610.7284      0             -1343.565      -10.050488    
SHAKE stats (type/ave/delta/count) on step 2350000
Bond:   1   1         1.37531e-06     6906
Angle:  1   109.47    9.97803e-05     3453
   2350000   133.4438      -1608.5067      0             -1340.3716     -19.536974    
SHAKE stats (type/ave/delta/count) on step 2360000
Bond:   1   1         1.22851e-06     6906
Angle:  1   109.47    0.000110824     3453
   2360000   133.42887     -1613.9121      0             -1345.8069      3.1136618    
SHAKE stats (type/ave/delta/count) on step 2370000
Bond:   1   1         1.34938e-06     6906
Angle:  1   109.47    0.000124569     3453
   2370000   134.0749      -1608.7648      0             -1339.3616     -7.801822     
SHAKE stats (type/ave/delta/count) on step 2380000
Bond:   1   1         1.31436e-06     6906
Angle:  1   109.47    9.19906e-05     3453
   2380000   130.67889     -1620.346       0             -1357.7665     -7.3690965    
SHAKE stats (type/ave/delta/count) on step 2390000
Bond:   1   1         1.10714e-06     6906
Angle:  1   109.47    9.58209e-05     3453
   2390000   131.35043     -1604.4253      0             -1340.4965     -8.6704672    
SHAKE stats (type/ave/delta/count) on step 2400000
Bond:   1   1         1.34594e-06     6906
Angle:  1   109.47    0.000106788     3453
   2400000   133.35794     -1620.9096      0             -1352.947      -13.538401    
SHAKE stats (type/ave/delta/count) on step 2410000
Bond:   1   1         1.25513e-06     6906
Angle:  1   109.47    9.35851e-05     3453
   2410000   132.6053      -1611.815       0             -1345.3647     -2.7405646    
SHAKE stats (type/ave/delta/count) on step 2420000
Bond:   1   1         1.37011e-06     6906
Angle:  1   109.47    9.92556e-05     3453
   2420000   134.00831     -1606.2735      0             -1337.0041     -3.0254095    
SHAKE stats (type/ave/delta/count) on step 2430000
Bond:   1   1         1.27568e-06     6906
Angle:  1   109.47    0.000101097     3453
   2430000   134.65696     -1619.7093      0             -1349.1365     -12.484126    
SHAKE stats (type/ave/delta/count) on step 2440000
Bond:   1   1         1.44864e-06     6906
Angle:  1   109.47    0.000100116     3453
   2440000   136.55659     -1608.1954      0             -1333.8055     -2.4483391    
SHAKE stats (type/ave/delta/count) on step 2450000
Bond:   1   1         1.30484e-06     6906
Angle:  1   109.47    0.000108968     3453
   2450000   132.54651     -1610.1668      0             -1343.8346     -15.289139    
SHAKE stats (type/ave/delta/count) on step 2460000
Bond:   1   1         1.11656e-06     6906
Angle:  1   109.47    9.48577e-05     3453
   2460000   134.3987      -1614.1416      0             -1344.0877     -17.020877    
SHAKE stats (type/ave/delta/count) on step 2470000
Bond:   1   1         1.33649e-06     6906
Angle:  1   109.47    0.000106432     3453
   2470000   134.76816     -1607.9992      0             -1337.203      -11.030258    
SHAKE stats (type/ave/delta/count) on step 2480000
Bond:   1   1         1.45098e-06     6906
Angle:  1   109.47    0.000101591     3453
   2480000   134.86029     -1604.1261      0             -1333.1447     -8.1301261    
SHAKE stats (type/ave/delta/count) on step 2490000
Bond:   1   1         1.49166e-06     6906
Angle:  1   109.47    0.000108854     3453
   2490000   131.82772     -1617.2301      0             -1352.3423     -5.4521234    
SHAKE stats (type/ave/delta/count) on step 2500000
Bond:   1   1         1.24043e-06     6906
Angle:  1   109.47    9.39505e-05     3453
   2500000   130.61441     -1598.5565      0             -1336.1066     -5.3961899    
SHAKE stats (type/ave/delta/count) on step 2510000
Bond:   1   1         1.4563e-06      6906
Angle:  1   109.47    0.000103955     3453
   2510000   134.02561     -1605.7021      0             -1336.3979     -0.73104341   
SHAKE stats (type/ave/delta/count) on step 2520000
Bond:   1   1         1.31019e-06     6906
Angle:  1   109.47    9.8753e-05      3453
   2520000   134.19551     -1611.9777      0             -1342.3321     -15.133098    
SHAKE stats (type/ave/delta/count) on step 2530000
Bond:   1   1         1.11217e-06     6906
Angle:  1   109.47    8.9322e-05      3453
   2530000   133.21033     -1613.7409      0             -1346.0749      1.9753148    
SHAKE stats (type/ave/delta/count) on step 2540000
Bond:   1   1         1.23767e-06     6906
Angle:  1   109.47    9.95077e-05     3453
   2540000   134.72042     -1617.3646      0             -1346.6642     -0.52621845   
SHAKE stats (type/ave/delta/count) on step 2550000
Bond:   1   1         1.32739e-06     6906
Angle:  1   109.47    0.000121818     3453
   2550000   132.36186     -1620.5875      0             -1354.6263     -3.9948659    
SHAKE stats (type/ave/delta/count) on step 2560000
Bond:   1   1         1.32871e-06     6906
Angle:  1   109.47    9.36102e-05     3453
   2560000   134.34455     -1610.6533      0             -1340.7082     -6.8770541    
SHAKE stats (type/ave/delta/count) on step 2570000
Bond:   1   1         1.51109e-06     6906
Angle:  1   109.47    0.000110656     3453
   2570000   133.30454     -1618.3675      0             -1350.5121      9.1149969    
SHAKE stats (type/ave/delta/count) on step 2580000
Bond:   1   1         1.3e-06         6906
Angle:  1   109.47    0.000102343     3453
   2580000   129.97302     -1612.8085      0             -1351.6474     -15.150481    
SHAKE stats (type/ave/delta/count) on step 2590000
Bond:   1   1         1.32805e-06     6906
Angle:  1   109.47    0.000128658     3453
   2590000   133.64655     -1612.3506      0             -1343.808      -11.703035    
SHAKE stats (type/ave/delta/count) on step 2600000
Bond:   1   1         1.38692e-06     6906
Angle:  1   109.47    0.000110072     3453
   2600000   133.56463     -1610.3075      0             -1341.9296     -5.4050573    
SHAKE stats (type/ave/delta/count) on step 2610000
Bond:   1   1         1.19212e-06     6906
Angle:  1   109.47    9.96862e-05     3453
   2610000   134.84794     -1616.0943      0             -1345.1377      9.8843655    
SHAKE stats (type/ave/delta/count) on step 2620000
Bond:   1   1         1.72718e-06     6906
Angle:  1   109.47    0.000128937     3453
   2620000   134.56254     -1616.8374      0             -1346.4543     -2.06284      
SHAKE stats (type/ave/delta/count) on step 2630000
Bond:   1   1         1.34337e-06     6906
Angle:  1   109.47    9.22067e-05     3453
   2630000   134.50365     -1608.0469      0             -1337.7822     -10.846252    
SHAKE stats (type/ave/delta/count) on step 2640000
Bond:   1   1         1.49628e-06     6906
Angle:  1   109.47    9.6699e-05      3453
   2640000   132.41514     -1615.3746      0             -1349.3063     -8.0822177    
SHAKE stats (type/ave/delta/count) on step 2650000
Bond:   1   1         1.5653e-06      6906
Angle:  1   109.47    9.46787e-05     3453
   2650000   133.21062     -1608.1323      0             -1340.4657     -12.144368    
SHAKE stats (type/ave/delta/count) on step 2660000
Bond:   1   1         1.31888e-06     6906
Angle:  1   109.47    0.000119186     3453
   2660000   133.44226     -1616.7924      0             -1348.6603     -7.0149321    
SHAKE stats (type/ave/delta/count) on step 2670000
Bond:   1   1         1.37602e-06     6906
Angle:  1   109.47    0.000107584     3453
   2670000   132.1338      -1605.8694      0             -1340.3665     -9.7077447    
SHAKE stats (type/ave/delta/count) on step 2680000
Bond:   1   1         1.42134e-06     6906
Angle:  1   109.47    9.83121e-05     3453
   2680000   133.59326     -1605.4096      0             -1336.9741     -5.7531242    
SHAKE stats (type/ave/delta/count) on step 2690000
Bond:   1   1         1.35668e-06     6906
Angle:  1   109.47    0.000114508     3453
   2690000   132.95091     -1611.4999      0             -1344.3551     -16.998569    
SHAKE stats (type/ave/delta/count) on step 2700000
Bond:   1   1         1.33291e-06     6906
Angle:  1   109.47    9.63956e-05     3453
   2700000   132.20492     -1602.2565      0             -1336.6107     -0.87688565   
SHAKE stats (type/ave/delta/count) on step 2710000
Bond:   1   1         1.47021e-06     6906
Angle:  1   109.47    0.00011767      3453
   2710000   130.92416     -1608.8797      0             -1345.8074     -14.962082    
SHAKE stats (type/ave/delta/count) on step 2720000
Bond:   1   1         1.50625e-06     6906
Angle:  1   109.47    0.000102663     3453
   2720000   131.77264     -1604.909       0             -1340.1318     -14.462217    
SHAKE stats (type/ave/delta/count) on step 2730000
Bond:   1   1         1.20367e-06     6906
Angle:  1   109.47    8.98954e-05     3453
   2730000   132.77373     -1616.1988      0             -1349.41        6.0750115    
SHAKE stats (type/ave/delta/count) on step 2740000
Bond:   1   1         1.3546e-06      6906
Angle:  1   109.47    0.000152675     3453
   2740000   133.08231     -1611.9719      0             -1344.5631     -13.067544    
SHAKE stats (type/ave/delta/count) on step 2750000
Bond:   1   1         1.16432e-06     6906
Angle:  1   109.47    9.65616e-05     3453
   2750000   132.33986     -1627.5124      0             -1361.5954     -5.814183     
SHAKE stats (type/ave/delta/count) on step 2760000
Bond:   1   1         1.39474e-06     6906
Angle:  1   109.47    0.000100235     3453
   2760000   134.19201     -1620.9094      0             -1351.2709     -5.2058417    
SHAKE stats (type/ave/delta/count) on step 2770000
Bond:   1   1         1.21281e-06     6906
Angle:  1   109.47    0.00010533      3453
   2770000   133.34368     -1607.9469      0             -1340.0129     -23.901769    
SHAKE stats (type/ave/delta/count) on step 2780000
Bond:   1   1         1.34398e-06     6906
Angle:  1   109.47    9.65088e-05     3453
   2780000   132.10097     -1616.3706      0             -1350.9336     -3.3236077    
SHAKE stats (type/ave/delta/count) on step 2790000
Bond:   1   1         1.32519e-06     6906
Angle:  1   109.47    9.82493e-05     3453
   2790000   133.99557     -1613.5296      0             -1344.2857     -5.2566382    
SHAKE stats (type/ave/delta/count) on step 2800000
Bond:   1   1         1.29569e-06     6906
Angle:  1   109.47    0.000110446     3453
   2800000   131.86376     -1609.6486      0             -1344.6883     -14.340348    
SHAKE stats (type/ave/delta/count) on step 2810000
Bond:   1   1         1.56829e-06     6906
Angle:  1   109.47    0.000106331     3453
   2810000   134.718       -1608.6833      0             -1337.9879     -7.0790732    
SHAKE stats (type/ave/delta/count) on step 2820000
Bond:   1   1         1.17781e-06     6906
Angle:  1   109.47    9.32451e-05     3453
   2820000   133.48068     -1609.4172      0             -1341.2079     -11.411469    
SHAKE stats (type/ave/delta/count) on step 2830000
Bond:   1   1         1.37606e-06     6906
Angle:  1   109.47    0.000103753     3453
   2830000   132.55238     -1610.7759      0             -1344.4319     -12.685255    
SHAKE stats (type/ave/delta/count) on step 2840000
Bond:   1   1         1.47961e-06     6906
Angle:  1   109.47    9.58324e-05     3453
   2840000   133.15858     -1609.1377      0             -1341.5756      0.25453025   
SHAKE stats (type/ave/delta/count) on step 2850000
Bond:   1   1         1.63159e-06     6906
Angle:  1   109.47    0.000125309     3453
   2850000   131.48876     -1614.1237      0             -1349.9169     -12.332928    
SHAKE stats (type/ave/delta/count) on step 2860000
Bond:   1   1         1.59873e-06     6906
Angle:  1   109.47    0.00010279      3453
   2860000   134.70102     -1608.9347      0             -1338.2733     -12.12125     
SHAKE stats (type/ave/delta/count) on step 2870000
Bond:   1   1         1.40736e-06     6906
Angle:  1   109.47    9.90116e-05     3453
   2870000   131.22656     -1607.6556      0             -1343.9756      1.0762155    
SHAKE stats (type/ave/delta/count) on step 2880000
Bond:   1   1         1.23597e-06     6906
Angle:  1   109.47    9.32969e-05     3453
   2880000   132.89632     -1613.7469      0             -1346.7118     -12.663639    
SHAKE stats (type/ave/delta/count) on step 2890000
Bond:   1   1         1.18294e-06     6906
Angle:  1   109.47    9.86139e-05     3453
   2890000   130.63718     -1613.7831      0             -1351.2874     -5.9353595    
SHAKE stats (type/ave/delta/count) on step 2900000
Bond:   1   1         1.41573e-06     6906
Angle:  1   109.47    0.000102391     3453
   2900000   133.66048     -1607.4582      0             -1338.8876     -14.418274    
SHAKE stats (type/ave/delta/count) on step 2910000
Bond:   1   1         1.23338e-06     6906
Angle:  1   109.47    0.000106027     3453
   2910000   134.54667     -1608.151       0             -1337.7998     -2.0487013    
SHAKE stats (type/ave/delta/count) on step 2920000
Bond:   1   1         1.26836e-06     6906
Angle:  1   109.47    9.98336e-05     3453
   2920000   133.03214     -1621.263       0             -1353.955      -2.3672412    
SHAKE stats (type/ave/delta/count) on step 2930000
Bond:   1   1         1.32431e-06     6906
Angle:  1   109.47    0.00010294      3453
   2930000   134.49179     -1612.9472      0             -1342.7063     -10.494214    
SHAKE stats (type/ave/delta/count) on step 2940000
Bond:   1   1         1.7406e-06      6906
Angle:  1   109.47    0.000120649     3453
   2940000   131.7334      -1607.755       0             -1343.0567     -0.20917342   
SHAKE stats (type/ave/delta/count) on step 2950000
Bond:   1   1         1.65687e-06     6906
Angle:  1   109.47    0.000107391     3453
   2950000   135.01067     -1617.3077      0             -1346.0242      5.2122375    
SHAKE stats (type/ave/delta/count) on step 2960000
Bond:   1   1         1.09717e-06     6906
Angle:  1   109.47    8.7292e-05      3453
   2960000   132.72053     -1609.0959      0             -1342.414      -9.6287193    
SHAKE stats (type/ave/delta/count) on step 2970000
Bond:   1   1         1.36938e-06     6906
Angle:  1   109.47    0.000105259     3453
   2970000   132.83646     -1604.5006      0             -1337.5857     -17.805652    
SHAKE stats (type/ave/delta/count) on step 2980000
Bond:   1   1         1.30693e-06     6906
Angle:  1   109.47    9.49116e-05     3453
   2980000   133.64845     -1614.1611      0             -1345.6147     -18.993634    
SHAKE stats (type/ave/delta/count) on step 2990000
Bond:   1   1         1.22379e-06     6906
Angle:  1   109.47    9.0444e-05      3453
   2990000   133.34099     -1614.074       0             -1346.1454     -5.7074059    
SHAKE stats (type/ave/delta/count) on step 3000000
Bond:   1   1         1.42612e-06     6906
Angle:  1   109.47    0.000124801     3453
   3000000   133.63145     -1605.9718      0             -1337.4596     -5.6077747    
SHAKE stats (type/ave/delta/count) on step 3010000
Bond:   1   1         1.75736e-06     6906
Angle:  1   109.47    0.000126039     3453
   3010000   133.34414     -1606.6279      0             -1338.693      -10.538639    
SHAKE stats (type/ave/delta/count) on step 3020000
Bond:   1   1         1.6342e-06      6906
Angle:  1   109.47    0.000101404     3453
   3020000   131.54348     -1612.7995      0             -1348.4828     -14.860838    
SHAKE stats (type/ave/delta/count) on step 3030000
Bond:   1   1         1.22853e-06     6906
Angle:  1   109.47    0.000102471     3453
   3030000   133.03913     -1615.3462      0             -1348.0242     -11.345091    
SHAKE stats (type/ave/delta/count) on step 3040000
Bond:   1   1         1.30892e-06     6906
Angle:  1   109.47    0.000102179     3453
   3040000   133.97967     -1615.2293      0             -1346.0174     -26.630346    
SHAKE stats (type/ave/delta/count) on step 3050000
Bond:   1   1         1.53351e-06     6906
Angle:  1   109.47    0.000109951     3453
   3050000   132.80001     -1619.1535      0             -1352.3119     -14.23585     
SHAKE stats (type/ave/delta/count) on step 3060000
Bond:   1   1         1.38371e-06     6906
Angle:  1   109.47    0.000103571     3453
   3060000   134.2228      -1621.8162      0             -1352.1158     -17.629287    
SHAKE stats (type/ave/delta/count) on step 3070000
Bond:   1   1         1.20507e-06     6906
Angle:  1   109.47    9.55981e-05     3453
   3070000   133.76335     -1620.9416      0             -1352.1643     -4.400065     
SHAKE stats (type/ave/delta/count) on step 3080000
Bond:   1   1         1.14035e-06     6906
Angle:  1   109.47    0.000102397     3453
   3080000   132.19236     -1609.3878      0             -1343.7672     -10.500842    
SHAKE stats (type/ave/delta/count) on step 3090000
Bond:   1   1         1.15753e-06     6906
Angle:  1   109.47    9.06266e-05     3453
   3090000   131.38249     -1617.2827      0             -1353.2894     -4.1738895    
SHAKE stats (type/ave/delta/count) on step 3100000
Bond:   1   1         1.40057e-06     6906
Angle:  1   109.47    8.97057e-05     3453
   3100000   135.03509     -1607.8485      0             -1336.5159      5.7192387    
SHAKE stats (type/ave/delta/count) on step 3110000
Bond:   1   1         1.17161e-06     6906
Angle:  1   109.47    9.58137e-05     3453
   3110000   134.08364     -1611.9356      0             -1342.5147     -13.120949    
SHAKE stats (type/ave/delta/count) on step 3120000
Bond:   1   1         1.25742e-06     6906
Angle:  1   109.47    8.91979e-05     3453
   3120000   131.49321     -1614.1         0             -1349.8842     -1.6976479    
SHAKE stats (type/ave/delta/count) on step 3130000
Bond:   1   1         1.21997e-06     6906
Angle:  1   109.47    0.000120693     3453
   3130000   133.60075     -1612.1321      0             -1343.6816     -14.618064    
SHAKE stats (type/ave/delta/count) on step 3140000
Bond:   1   1         1.29908e-06     6906
Angle:  1   109.47    0.000101577     3453
   3140000   131.78707     -1614.3311      0             -1349.5248     -15.969517    
SHAKE stats (type/ave/delta/count) on step 3150000
Bond:   1   1         1.13866e-06     6906
Angle:  1   109.47    0.000103481     3453
   3150000   134.81588     -1611.7747      0             -1340.8825     -5.4790596    
SHAKE stats (type/ave/delta/count) on step 3160000
Bond:   1   1         1.21739e-06     6906
Angle:  1   109.47    0.000102436     3453
   3160000   133.1692      -1618.9379      0             -1351.3545     -18.160057    
SHAKE stats (type/ave/delta/count) on step 3170000
Bond:   1   1         1.18227e-06     6906
Angle:  1   109.47    9.7069e-05      3453
   3170000   134.83085     -1619.127       0             -1348.2048     -12.621117    
SHAKE stats (type/ave/delta/count) on step 3180000
Bond:   1   1         1.37054e-06     6906
Angle:  1   109.47    0.000103456     3453
   3180000   132.55882     -1609.2344      0             -1342.8775     -4.9516732    
SHAKE stats (type/ave/delta/count) on step 3190000
Bond:   1   1         1.26559e-06     6906
Angle:  1   109.47    0.000105846     3453
   3190000   133.23573     -1604.5463      0             -1336.8292     -9.8013092    
SHAKE stats (type/ave/delta/count) on step 3200000
Bond:   1   1         1.15544e-06     6906
Angle:  1   109.47    8.897e-05       3453
   3200000   132.53973     -1609.86        0             -1343.5414     -9.4184708    
SHAKE stats (type/ave/delta/count) on step 3210000
Bond:   1   1         1.37206e-06     6906
Angle:  1   109.47    9.39117e-05     3453
   3210000   133.88651     -1613.5313      0             -1344.5066     -1.7931457    
SHAKE stats (type/ave/delta/count) on step 3220000
Bond:   1   1         1.3751e-06      6906
Angle:  1   109.47    9.92587e-05     3453
   3220000   132.71814     -1611.3026      0             -1344.6255     -31.171657    
SHAKE stats (type/ave/delta/count) on step 3230000
Bond:   1   1         1.46488e-06     6906
Angle:  1   109.47    0.000107944     3453
   3230000   134.4686      -1608.8599      0             -1338.6656     -5.8080687    
SHAKE stats (type/ave/delta/count) on step 3240000
Bond:   1   1         1.62917e-06     6906
Angle:  1   109.47    0.000101295     3453
   3240000   132.16991     -1607.2028      0             -1341.6273     -4.3336281    
SHAKE stats (type/ave/delta/count) on step 3250000
Bond:   1   1         1.36735e-06     6906
Angle:  1   109.47    0.00010482      3453
   3250000   132.88383     -1619.3418      0             -1352.3318     -10.223045    
SHAKE stats (type/ave/delta/count) on step 3260000
Bond:   1   1         1.26841e-06     6906
Angle:  1   109.47    0.000109574     3453
   3260000   133.62336     -1614.5285      0             -1346.0326     -23.961563    
SHAKE stats (type/ave/delta/count) on step 3270000
Bond:   1   1         1.18996e-06     6906
Angle:  1   109.47    9.61644e-05     3453
   3270000   132.39332     -1612.6238      0             -1346.5994     -10.261598    
SHAKE stats (type/ave/delta/count) on step 3280000
Bond:   1   1         1.64789e-06     6906
Angle:  1   109.47    0.000121378     3453
   3280000   132.88535     -1612.8112      0             -1345.7982     -15.133282    
SHAKE stats (type/ave/delta/count) on step 3290000
Bond:   1   1         1.47619e-06     6906
Angle:  1   109.47    9.71061e-05     3453
   3290000   134.14007     -1609.2303      0             -1339.6961      3.3130674    
SHAKE stats (type/ave/delta/count) on step 3300000
Bond:   1   1         1.47299e-06     6906
Angle:  1   109.47    0.000100646     3453
   3300000   133.81974     -1614.7324      0             -1345.8418     -20.109932    
SHAKE stats (type/ave/delta/count) on step 3310000
Bond:   1   1         1.16048e-06     6906
Angle:  1   109.47    9.59414e-05     3453
   3310000   133.31729     -1610.4488      0             -1342.5679     -7.173253     
SHAKE stats (type/ave/delta/count) on step 3320000
Bond:   1   1         1.41461e-06     6906
Angle:  1   109.47    9.51701e-05     3453
   3320000   133.8235      -1615.1059      0             -1346.2077     -12.644887    
SHAKE stats (type/ave/delta/count) on step 3330000
Bond:   1   1         1.20664e-06     6906
Angle:  1   109.47    0.000108476     3453
   3330000   130.04071     -1615.2909      0             -1353.9937     -13.304325    
SHAKE stats (type/ave/delta/count) on step 3340000
Bond:   1   1         1.37924e-06     6906
Angle:  1   109.47    9.27398e-05     3453
   3340000   135.13556     -1616.6192      0             -1345.0847     -0.26589423   
SHAKE stats (type/ave/delta/count) on step 3350000
Bond:   1   1         1.36163e-06     6906
Angle:  1   109.47    0.000103443     3453
   3350000   133.02863     -1612.8813      0             -1345.5803     -8.8483161    
SHAKE stats (type/ave/delta/count) on step 3360000
Bond:   1   1         1.42865e-06     6906
Angle:  1   109.47    0.000103338     3453
   3360000   133.9815      -1614.8208      0             -1345.6052     -12.998454    
SHAKE stats (type/ave/delta/count) on step 3370000
Bond:   1   1         1.17557e-06     6906
Angle:  1   109.47    9.41222e-05     3453
   3370000   134.08873     -1609.8803      0             -1340.4492     -9.3936646    
SHAKE stats (type/ave/delta/count) on step 3380000
Bond:   1   1         1.65732e-06     6906
Angle:  1   109.47    0.000106974     3453
   3380000   135.39076     -1617.4822      0             -1345.4349     -3.0353962    
SHAKE stats (type/ave/delta/count) on step 3390000
Bond:   1   1         1.36119e-06     6906
Angle:  1   109.47    0.000100995     3453
   3390000   132.97297     -1615.9885      0             -1348.7994     -11.725831    
SHAKE stats (type/ave/delta/count) on step 3400000
Bond:   1   1         1.22036e-06     6906
Angle:  1   109.47    9.3934e-05      3453
   3400000   132.4492      -1609.3927      0             -1343.2561     -16.262939    
SHAKE stats (type/ave/delta/count) on step 3410000
Bond:   1   1         1.17577e-06     6906
Angle:  1   109.47    0.00010465      3453
   3410000   132.31341     -1605.4733      0             -1339.6095     -4.52413      
SHAKE stats (type/ave/delta/count) on step 3420000
Bond:   1   1         1.06517e-06     6906
Angle:  1   109.47    9.60608e-05     3453
   3420000   133.05774     -1614.748       0             -1347.3886     -7.6359965    
SHAKE stats (type/ave/delta/count) on step 3430000
Bond:   1   1         1.36428e-06     6906
Angle:  1   109.47    0.000104625     3453
   3430000   132.98602     -1614.969       0             -1347.7537      1.7827818    
SHAKE stats (type/ave/delta/count) on step 3440000
Bond:   1   1         1.3395e-06      6906
Angle:  1   109.47    0.000117207     3453
   3440000   131.86841     -1607.8629      0             -1342.8933     -9.7218432    
SHAKE stats (type/ave/delta/count) on step 3450000
Bond:   1   1         1.23123e-06     6906
Angle:  1   109.47    9.20285e-05     3453
   3450000   134.72508     -1617.614       0             -1346.9043     -0.99296808   
SHAKE stats (type/ave/delta/count) on step 3460000
Bond:   1   1         1.32759e-06     6906
Angle:  1   109.47    0.00010731      3453
   3460000   133.43896     -1620.5653      0             -1352.4398     -0.26351555   
SHAKE stats (type/ave/delta/count) on step 3470000
Bond:   1   1         1.63436e-06     6906
Angle:  1   109.47    0.000115609     3453
   3470000   133.13243     -1612.7889      0             -1345.2794     -9.9823986    
SHAKE stats (type/ave/delta/count) on step 3480000
Bond:   1   1         1.64057e-06     6906
Angle:  1   109.47    0.000101808     3453
   3480000   133.9168      -1616.3412      0             -1347.2556     -5.9241366    
SHAKE stats (type/ave/delta/count) on step 3490000
Bond:   1   1         1.32593e-06     6906
Angle:  1   109.47    0.000115659     3453
   3490000   132.10265     -1605.089       0             -1339.6487     -7.9974407    
SHAKE stats (type/ave/delta/count) on step 3500000
Bond:   1   1         1.12554e-06     6906
Angle:  1   109.47    9.43868e-05     3453
   3500000   136.06357     -1615.1489      0             -1341.7497     -16.258735    
SHAKE stats (type/ave/delta/count) on step 3510000
Bond:   1   1         1.22628e-06     6906
Angle:  1   109.47    9.9984e-05      3453
   3510000   133.53246     -1610.3768      0             -1342.0635     -10.64945     
SHAKE stats (type/ave/delta/count) on step 3520000
Bond:   1   1         1.40026e-06     6906
Angle:  1   109.47    9.96459e-05     3453
   3520000   130.98115     -1609.2584      0             -1346.0716     -10.452103    
SHAKE stats (type/ave/delta/count) on step 3530000
Bond:   1   1         1.6994e-06      6906
Angle:  1   109.47    0.000120704     3453
   3530000   133.90793     -1609.182       0             -1340.1142     -4.4367172    
SHAKE stats (type/ave/delta/count) on step 3540000
Bond:   1   1         1.69475e-06     6906
Angle:  1   109.47    0.000108106     3453
   3540000   132.3301      -1610.5564      0             -1344.659      -16.27838     
SHAKE stats (type/ave/delta/count) on step 3550000
Bond:   1   1         1.40879e-06     6906
Angle:  1   109.47    9.96085e-05     3453
   3550000   133.75051     -1614.5199      0             -1345.7684     -27.034809    
SHAKE stats (type/ave/delta/count) on step 3560000
Bond:   1   1         1.37353e-06     6906
Angle:  1   109.47    0.000103227     3453
   3560000   133.84086     -1615.7897      0             -1346.8567     -13.254154    
SHAKE stats (type/ave/delta/count) on step 3570000
Bond:   1   1         1.11869e-06     6906
Angle:  1   109.47    9.36777e-05     3453
   3570000   133.49555     -1613.8017      0             -1345.5625      7.2692526    
SHAKE stats (type/ave/delta/count) on step 3580000
Bond:   1   1         1.35548e-06     6906
Angle:  1   109.47    9.36355e-05     3453
   3580000   132.46876     -1608.1547      0             -1341.9788     -12.381366    
SHAKE stats (type/ave/delta/count) on step 3590000
Bond:   1   1         1.19808e-06     6906
Angle:  1   109.47    0.000116515     3453
   3590000   132.78849     -1614.6195      0             -1347.801      -15.872298    
SHAKE stats (type/ave/delta/count) on step 3600000
Bond:   1   1         1.15632e-06     6906
Angle:  1   109.47    9.03891e-05     3453
   3600000   132.11082     -1607.1399      0             -1341.6831     -10.86145     
SHAKE stats (type/ave/delta/count) on step 3610000
Bond:   1   1         1.24e-06        6906
Angle:  1   109.47    9.54419e-05     3453
   3610000   130.08202     -1611.5859      0             -1350.2058     -9.1504493    
SHAKE stats (type/ave/delta/count) on step 3620000
Bond:   1   1         1.29771e-06     6906
Angle:  1   109.47    0.000128381     3453
   3620000   130.98932     -1612.0869      0             -1348.8837     -10.980133    
SHAKE stats (type/ave/delta/count) on step 3630000
Bond:   1   1         1.27235e-06     6906
Angle:  1   109.47    9.94985e-05     3453
   3630000   133.57817     -1618.7891      0             -1350.3839      5.6972016    
SHAKE stats (type/ave/delta/count) on step 3640000
Bond:   1   1         1.38891e-06     6906
Angle:  1   109.47    9.52381e-05     3453
   3640000   134.52278     -1602.1041      0             -1331.8009     -5.6694408    
SHAKE stats (type/ave/delta/count) on step 3650000
Bond:   1   1         1.31414e-06     6906
Angle:  1   109.47    0.000101611     3453
   3650000   133.06815     -1607.5051      0             -1340.1247     -10.08207     
SHAKE stats (type/ave/delta/count) on step 3660000
Bond:   1   1         1.31428e-06     6906
Angle:  1   109.47    9.28109e-05     3453
   3660000   134.00755     -1608.8157      0             -1339.5478     -4.9183348    
SHAKE stats (type/ave/delta/count) on step 3670000
Bond:   1   1         1.3692e-06      6906
Angle:  1   109.47    9.88856e-05     3453
   3670000   132.46436     -1611.261       0             -1345.0939     -18.978098    
SHAKE stats (type/ave/delta/count) on step 3680000
Bond:   1   1         1.19511e-06     6906
Angle:  1   109.47    9.33564e-05     3453
   3680000   130.53454     -1613.7751      0             -1351.4856     -6.68172      
SHAKE stats (type/ave/delta/count) on step 3690000
Bond:   1   1         1.51073e-06     6906
Angle:  1   109.47    0.000117423     3453
   3690000   134.15123     -1615.7693      0             -1346.2126     -13.77396     
SHAKE stats (type/ave/delta/count) on step 3700000
Bond:   1   1         1.25449e-06     6906
Angle:  1   109.47    9.45276e-05     3453
   3700000   132.30681     -1614.9699      0             -1349.1193      5.6698876    
SHAKE stats (type/ave/delta/count) on step 3710000
Bond:   1   1         1.14528e-06     6906
Angle:  1   109.47    0.000105056     3453
   3710000   131.31816     -1619.4391      0             -1355.5751     -8.6677066    
SHAKE stats (type/ave/delta/count) on step 3720000
Bond:   1   1         1.49835e-06     6906
Angle:  1   109.47    0.00010898      3453
   3720000   133.54306     -1608.7861      0             -1340.4515     -15.278227    
SHAKE stats (type/ave/delta/count) on step 3730000
Bond:   1   1         1.22985e-06     6906
Angle:  1   109.47    9.28098e-05     3453
   3730000   132.14798     -1611.24        0             -1345.7086     -21.021008    
SHAKE stats (type/ave/delta/count) on step 3740000
Bond:   1   1         1.26561e-06     6906
Angle:  1   109.47    0.000114733     3453
   3740000   132.67457     -1610.6734      0             -1344.0839     -13.518914    
SHAKE stats (type/ave/delta/count) on step 3750000
Bond:   1   1         1.26482e-06     6906
Angle:  1   109.47    9.40397e-05     3453
   3750000   132.58292     -1604.9097      0             -1338.5043     -1.1311887    
SHAKE stats (type/ave/delta/count) on step 3760000
Bond:   1   1         1.22798e-06     6906
Angle:  1   109.47    0.000114452     3453
   3760000   132.37848     -1617.3305      0             -1351.336      -11.453613    
SHAKE stats (type/ave/delta/count) on step 3770000
Bond:   1   1         1.41241e-06     6906
Angle:  1   109.47    0.000100031     3453
   3770000   133.47129     -1609.306       0             -1341.1156     -17.720962    
SHAKE stats (type/ave/delta/count) on step 3780000
Bond:   1   1         1.06458e-06     6906
Angle:  1   109.47    0.000101341     3453
   3780000   132.3728      -1610.0977      0             -1344.1145     -20.777401    
SHAKE stats (type/ave/delta/count) on step 3790000
Bond:   1   1         1.31147e-06     6906
Angle:  1   109.47    0.000100803     3453
   3790000   131.78148     -1612.2536      0             -1347.4587     -11.762841    
SHAKE stats (type/ave/delta/count) on step 3800000
Bond:   1   1         1.58602e-06     6906
Angle:  1   109.47    9.76132e-05     3453
   3800000   131.25864     -1612.031       0             -1348.2866     -3.2181839    
SHAKE stats (type/ave/delta/count) on step 3810000
Bond:   1   1         1.17189e-06     6906
Angle:  1   109.47    9.72521e-05     3453
   3810000   133.6631      -1618.5414      0             -1349.9656     -5.2713846    
SHAKE stats (type/ave/delta/count) on step 3820000
Bond:   1   1         1.29786e-06     6906
Angle:  1   109.47    0.000103688     3453
   3820000   133.44976     -1611.2597      0             -1343.1126     -18.515166    
SHAKE stats (type/ave/delta/count) on step 3830000
Bond:   1   1         1.3387e-06      6906
Angle:  1   109.47    9.91803e-05     3453
   3830000   133.70759     -1614.2839      0             -1345.6187     -5.4193798    
SHAKE stats (type/ave/delta/count) on step 3840000
Bond:   1   1         1.46766e-06     6906
Angle:  1   109.47    0.000114372     3453
   3840000   134.09635     -1608.6575      0             -1339.2111     -18.845665    
SHAKE stats (type/ave/delta/count) on step 3850000
Bond:   1   1         1.17873e-06     6906
Angle:  1   109.47    9.14159e-05     3453
   3850000   133.82133     -1609.986       0             -1341.0923     -22.459869    
SHAKE stats (type/ave/delta/count) on step 3860000
Bond:   1   1         1.71549e-06     6906
Angle:  1   109.47    9.891e-05       3453
   3860000   133.22345     -1613.0704      0             -1345.378      -1.9020971    
SHAKE stats (type/ave/delta/count) on step 3870000
Bond:   1   1         1.51887e-06     6906
Angle:  1   109.47    0.000111596     3453
   3870000   135.87409     -1611.7708      0             -1338.7524     -3.6761225    
SHAKE stats (type/ave/delta/count) on step 3880000
Bond:   1   1         1.14997e-06     6906
Angle:  1   109.47    9.98927e-05     3453
   3880000   134.55787     -1608.2966      0             -1337.9229      2.569255     
SHAKE stats (type/ave/delta/count) on step 3890000
Bond:   1   1         1.30326e-06     6906
Angle:  1   109.47    9.97512e-05     3453
   3890000   134.07618     -1606.321       0             -1336.9152     -6.7362336    
SHAKE stats (type/ave/delta/count) on step 3900000
Bond:   1   1         1.0479e-06      6906
Angle:  1   109.47    9.94038e-05     3453
   3900000   134.56494     -1607.4015      0             -1337.0136     -12.328278    
SHAKE stats (type/ave/delta/count) on step 3910000
Bond:   1   1         1.2232e-06      6906
Angle:  1   109.47    0.000107287     3453
   3910000   131.90349     -1610.396       0             -1345.3559     -13.937846    
SHAKE stats (type/ave/delta/count) on step 3920000
Bond:   1   1         1.50156e-06     6906
Angle:  1   109.47    9.6528e-05      3453
   3920000   134.36231     -1611.1551      0             -1341.1743     -1.076364     
SHAKE stats (type/ave/delta/count) on step 3930000
Bond:   1   1         1.34277e-06     6906
Angle:  1   109.47    0.000109016     3453
   3930000   135.78479     -1614.2061      0             -1341.367      -1.422067     
SHAKE stats (type/ave/delta/count) on step 3940000
Bond:   1   1         1.39829e-06     6906
Angle:  1   109.47    9.57289e-05     3453
   3940000   135.11808     -1618.584       0             -1347.0846     -11.157692    
SHAKE stats (type/ave/delta/count) on step 3950000
Bond:   1   1         1.34858e-06     6906
Angle:  1   109.47    0.00010245      3453
   3950000   131.70449     -1607.7793      0             -1343.139      -15.428138    
SHAKE stats (type/ave/delta/count) on step 3960000
Bond:   1   1         1.1203e-06      6906
Angle:  1   109.47    9.40286e-05     3453
   3960000   133.15534     -1614.9863      0             -1347.4308     -11.88578     
SHAKE stats (type/ave/delta/count) on step 3970000
Bond:   1   1         1.28258e-06     6906
Angle:  1   109.47    9.39009e-05     3453
   3970000   132.89899     -1612.9019      0             -1345.8614     -13.183425    
SHAKE stats (type/ave/delta/count) on step 3980000
Bond:   1   1         1.24923e-06     6906
Angle:  1   109.47    8.80842e-05     3453
   3980000   132.51873     -1613.2552      0             -1346.9788      3.6870036    
SHAKE stats (type/ave/delta/count) on step 3990000
Bond:   1   1         1.25365e-06     6906
Angle:  1   109.47    0.000117214     3453
   3990000   132.47507     -1605.1316      0             -1338.9429     -4.9721453    
SHAKE stats (type/ave/delta/count) on step 4000000
Bond:   1   1         1.37353e-06     6906
Angle:  1   109.47    9.07245e-05     3453
   4000000   133.19445     -1612.3641      0             -1344.7299      1.1479376    
SHAKE stats (type/ave/delta/count) on step 4010000
Bond:   1   1         1.07099e-06     6906
Angle:  1   109.47    8.644e-05       3453
   4010000   132.45063     -1607.8809      0             -1341.7414     -1.7963167    
SHAKE stats (type/ave/delta/count) on step 4020000
Bond:   1   1         1.25516e-06     6906
Angle:  1   109.47    0.000108868     3453
   4020000   132.0658      -1614.0441      0             -1348.6778     -4.5037608    
SHAKE stats (type/ave/delta/count) on step 4030000
Bond:   1   1         1.24878e-06     6906
Angle:  1   109.47    0.000113775     3453
   4030000   133.24767     -1614.9808      0             -1347.2397     -7.3389696    
SHAKE stats (type/ave/delta/count) on step 4040000
Bond:   1   1         1.35592e-06     6906
Angle:  1   109.47    9.60627e-05     3453
   4040000   133.93399     -1608.3012      0             -1339.1811     -32.398893    
SHAKE stats (type/ave/delta/count) on step 4050000
Bond:   1   1         1.46244e-06     6906
Angle:  1   109.47    0.000100721     3453
   4050000   132.44116     -1607.881       0             -1341.7605     -10.87154     
SHAKE stats (type/ave/delta/count) on step 4060000
Bond:   1   1         1.24279e-06     6906
Angle:  1   109.47    0.000122341     3453
   4060000   131.77632     -1616.5333      0             -1351.7487     -8.544561     
SHAKE stats (type/ave/delta/count) on step 4070000
Bond:   1   1         1.09196e-06     6906
Angle:  1   109.47    9.16413e-05     3453
   4070000   132.36767     -1609.0086      0             -1343.0358     -4.7206571    
SHAKE stats (type/ave/delta/count) on step 4080000
Bond:   1   1         1.7117e-06      6906
Angle:  1   109.47    0.000129929     3453
   4080000   131.15441     -1609.9732      0             -1346.4383     -21.206359    
SHAKE stats (type/ave/delta/count) on step 4090000
Bond:   1   1         1.24038e-06     6906
Angle:  1   109.47    9.51947e-05     3453
   4090000   132.59267     -1616.0529      0             -1349.6279     -4.9996517    
SHAKE stats (type/ave/delta/count) on step 4100000
Bond:   1   1         1.23313e-06     6906
Angle:  1   109.47    9.81466e-05     3453
   4100000   134.76658     -1615.4077      0             -1344.6146     -9.9489662    
SHAKE stats (type/ave/delta/count) on step 4110000
Bond:   1   1         1.25429e-06     6906
Angle:  1   109.47    0.000106286     3453
   4110000   131.7059      -1610.8703      0             -1346.2272     -9.3505845    
SHAKE stats (type/ave/delta/count) on step 4120000
Bond:   1   1         1.39896e-06     6906
Angle:  1   109.47    0.000109138     3453
   4120000   133.13337     -1608.7541      0             -1341.2427     -4.9265046    
SHAKE stats (type/ave/delta/count) on step 4130000
Bond:   1   1         1.77276e-06     6906
Angle:  1   109.47    0.000116187     3453
   4130000   131.35754     -1609.7199      0             -1345.7768     -17.472921    
SHAKE stats (type/ave/delta/count) on step 4140000
Bond:   1   1         1.36638e-06     6906
Angle:  1   109.47    0.000101517     3453
   4140000   133.1376      -1613.1106      0             -1345.5907     -2.8272777    
SHAKE stats (type/ave/delta/count) on step 4150000
Bond:   1   1         1.35687e-06     6906
Angle:  1   109.47    0.000119439     3453
   4150000   132.03703     -1606.162       0             -1340.8535     -19.492805    
SHAKE stats (type/ave/delta/count) on step 4160000
Bond:   1   1         1.54289e-06     6906
Angle:  1   109.47    0.000108653     3453
   4160000   131.74575     -1607.9549      0             -1343.2317     -15.508823    
SHAKE stats (type/ave/delta/count) on step 4170000
Bond:   1   1         1.28304e-06     6906
Angle:  1   109.47    0.000111012     3453
   4170000   131.33411     -1610.1347      0             -1346.2386     -12.250632    
SHAKE stats (type/ave/delta/count) on step 4180000
Bond:   1   1         1.30079e-06     6906
Angle:  1   109.47    0.000106637     3453
   4180000   134.44656     -1605.7759      0             -1335.6258     -6.2147872    
SHAKE stats (type/ave/delta/count) on step 4190000
Bond:   1   1         1.16528e-06     6906
Angle:  1   109.47    9.59784e-05     3453
   4190000   133.65675     -1609.5913      0             -1341.0283     -7.9271288    
SHAKE stats (type/ave/delta/count) on step 4200000
Bond:   1   1         1.45681e-06     6906
Angle:  1   109.47    9.89981e-05     3453
   4200000   134.82293     -1612.6001      0             -1341.6937     -11.811002    
SHAKE stats (type/ave/delta/count) on step 4210000
Bond:   1   1         1.31139e-06     6906
Angle:  1   109.47    0.000112357     3453
   4210000   133.05813     -1603.0966      0             -1335.7364     -13.475096    
SHAKE stats (type/ave/delta/count) on step 4220000
Bond:   1   1         1.16491e-06     6906
Angle:  1   109.47    9.46238e-05     3453
   4220000   134.52581     -1610.1926      0             -1339.8833      0.059558014  
SHAKE stats (type/ave/delta/count) on step 4230000
Bond:   1   1         1.23033e-06     6906
Angle:  1   109.47    9.1028e-05      3453
   4230000   132.85292     -1615.2605      0             -1348.3126     -13.680926    
SHAKE stats (type/ave/delta/count) on step 4240000
Bond:   1   1         1.07719e-06     6906
Angle:  1   109.47    0.000112139     3453
   4240000   137.12773     -1605.3618      0             -1329.8243     -15.250826    
SHAKE stats (type/ave/delta/count) on step 4250000
Bond:   1   1         1.31311e-06     6906
Angle:  1   109.47    9.74413e-05     3453
   4250000   134.94673     -1611.5631      0             -1340.408      -18.304856    
SHAKE stats (type/ave/delta/count) on step 4260000
Bond:   1   1         1.21816e-06     6906
Angle:  1   109.47    0.000103698     3453
   4260000   131.34524     -1621.72        0             -1357.8016     -3.242579     
SHAKE stats (type/ave/delta/count) on step 4270000
Bond:   1   1         1.16906e-06     6906
Angle:  1   109.47    9.37499e-05     3453
   4270000   132.37069     -1615.3752      0             -1349.3963     -18.321869    
SHAKE stats (type/ave/delta/count) on step 4280000
Bond:   1   1         1.29374e-06     6906
Angle:  1   109.47    9.55609e-05     3453
   4280000   132.92448     -1608.5342      0             -1341.4425     -12.745355    
SHAKE stats (type/ave/delta/count) on step 4290000
Bond:   1   1         1.1272e-06      6906
Angle:  1   109.47    9.58628e-05     3453
   4290000   134.23128     -1617.679       0             -1347.9615     -13.710335    
SHAKE stats (type/ave/delta/count) on step 4300000
Bond:   1   1         1.20426e-06     6906
Angle:  1   109.47    9.00257e-05     3453
   4300000   133.94166     -1615.3415      0             -1346.2059     -19.127718    
SHAKE stats (type/ave/delta/count) on step 4310000
Bond:   1   1         1.36157e-06     6906
Angle:  1   109.47    9.11664e-05     3453
   4310000   133.62579     -1619.3684      0             -1350.8676      0.028871212  
SHAKE stats (type/ave/delta/count) on step 4320000
Bond:   1   1         1.19299e-06     6906
Angle:  1   109.47    9.88066e-05     3453
   4320000   132.47192     -1608.7091      0             -1342.5268     -9.3242616    
SHAKE stats (type/ave/delta/count) on step 4330000
Bond:   1   1         1.22926e-06     6906
Angle:  1   109.47    0.000120168     3453
   4330000   136.06866     -1616.3258      0             -1342.9164     -3.3077126    
SHAKE stats (type/ave/delta/count) on step 4340000
Bond:   1   1         1.23578e-06     6906
Angle:  1   109.47    9.57785e-05     3453
   4340000   133.13334     -1614.9279      0             -1347.4166      2.069377     
SHAKE stats (type/ave/delta/count) on step 4350000
Bond:   1   1         1.3092e-06      6906
Angle:  1   109.47    9.55611e-05     3453
   4350000   133.47319     -1614.531       0             -1346.3367     -8.8300696    
SHAKE stats (type/ave/delta/count) on step 4360000
Bond:   1   1         1.27808e-06     6906
Angle:  1   109.47    0.000100552     3453
   4360000   132.99629     -1611.4457      0             -1344.2098     -16.609359    
SHAKE stats (type/ave/delta/count) on step 4370000
Bond:   1   1         1.18028e-06     6906
Angle:  1   109.47    0.00010407      3453
   4370000   134.03867     -1606.8877      0             -1337.5573      8.7144594    
SHAKE stats (type/ave/delta/count) on step 4380000
Bond:   1   1         1.40383e-06     6906
Angle:  1   109.47    9.07273e-05     3453
   4380000   134.85336     -1611.2197      0             -1340.2523     -9.9910484    
SHAKE stats (type/ave/delta/count) on step 4390000
Bond:   1   1         1.8414e-06      6906
Angle:  1   109.47    0.000134188     3453
   4390000   131.51466     -1614.4784      0             -1350.2196     -6.3139493    
SHAKE stats (type/ave/delta/count) on step 4400000
Bond:   1   1         1.52621e-06     6906
Angle:  1   109.47    0.000111562     3453
   4400000   133.96379     -1602.109       0             -1332.929      -9.9241814    
SHAKE stats (type/ave/delta/count) on step 4410000
Bond:   1   1         1.23228e-06     6906
Angle:  1   109.47    9.40789e-05     3453
   4410000   135.28029     -1612.9563      0             -1341.131      -14.479395    
SHAKE stats (type/ave/delta/count) on step 4420000
Bond:   1   1         1.32734e-06     6906
Angle:  1   109.47    9.46965e-05     3453
   4420000   132.77924     -1612.5586      0             -1345.7587     -21.975113    
SHAKE stats (type/ave/delta/count) on step 4430000
Bond:   1   1         1.26482e-06     6906
Angle:  1   109.47    9.6559e-05      3453
   4430000   134.0666      -1608.8069      0             -1339.4204     -13.314166    
SHAKE stats (type/ave/delta/count) on step 4440000
Bond:   1   1         1.54361e-06     6906
Angle:  1   109.47    0.000118471     3453
   4440000   132.54948     -1611.6717      0             -1345.3336     -15.139723    
SHAKE stats (type/ave/delta/count) on step 4450000
Bond:   1   1         1.19575e-06     6906
Angle:  1   109.47    8.95445e-05     3453
   4450000   133.70835     -1614.1888      0             -1345.5221      7.0103381    
SHAKE stats (type/ave/delta/count) on step 4460000
Bond:   1   1         1.51285e-06     6906
Angle:  1   109.47    0.00011243      3453
   4460000   132.99797     -1608.0469      0             -1340.8076     -18.758565    
SHAKE stats (type/ave/delta/count) on step 4470000
Bond:   1   1         1.43301e-06     6906
Angle:  1   109.47    0.00012278      3453
   4470000   132.73249     -1619.848       0             -1353.1421     -8.9182459    
SHAKE stats (type/ave/delta/count) on step 4480000
Bond:   1   1         1.6913e-06      6906
Angle:  1   109.47    0.000121372     3453
   4480000   134.36308     -1613.4826      0             -1343.5003     -9.6452286    
SHAKE stats (type/ave/delta/count) on step 4490000
Bond:   1   1         1.51721e-06     6906
Angle:  1   109.47    0.000120528     3453
   4490000   133.30971     -1608.0921      0             -1340.2264     -23.628151    
SHAKE stats (type/ave/delta/count) on step 4500000
Bond:   1   1         1.19673e-06     6906
Angle:  1   109.47    0.000109167     3453
   4500000   134.03601     -1615.8964      0             -1346.5713      3.7944595    
SHAKE stats (type/ave/delta/count) on step 4510000
Bond:   1   1         1.31218e-06     6906
Angle:  1   109.47    9.05428e-05     3453
   4510000   135.48753     -1610.2574      0             -1338.0157     -5.9473142    
SHAKE stats (type/ave/delta/count) on step 4520000
Bond:   1   1         1.13609e-06     6906
Angle:  1   109.47    9.1774e-05      3453
   4520000   133.23392     -1605.2457      0             -1337.5322     -18.717123    
SHAKE stats (type/ave/delta/count) on step 4530000
Bond:   1   1         1.38185e-06     6906
Angle:  1   109.47    0.000118362     3453
   4530000   131.59779     -1610.963       0             -1346.5372     -12.573045    
SHAKE stats (type/ave/delta/count) on step 4540000
Bond:   1   1         1.31328e-06     6906
Angle:  1   109.47    0.000125855     3453
   4540000   130.98187     -1612.0254      0             -1348.8371     -1.3616578    
SHAKE stats (type/ave/delta/count) on step 4550000
Bond:   1   1         1.1826e-06      6906
Angle:  1   109.47    9.6475e-05      3453
   4550000   133.67191     -1612.2086      0             -1343.615      -2.8848166    
SHAKE stats (type/ave/delta/count) on step 4560000
Bond:   1   1         1.55894e-06     6906
Angle:  1   109.47    0.000101604     3453
   4560000   133.42356     -1613.1281      0             -1345.0336      3.98242      
SHAKE stats (type/ave/delta/count) on step 4570000
Bond:   1   1         1.27267e-06     6906
Angle:  1   109.47    0.000103374     3453
   4570000   132.51232     -1614.8661      0             -1348.6026     -14.630466    
SHAKE stats (type/ave/delta/count) on step 4580000
Bond:   1   1         1.28285e-06     6906
Angle:  1   109.47    0.00010359      3453
   4580000   133.35544     -1613.6044      0             -1345.6468     -9.6513605    
SHAKE stats (type/ave/delta/count) on step 4590000
Bond:   1   1         1.25647e-06     6906
Angle:  1   109.47    9.26702e-05     3453
   4590000   134.09102     -1613.1695      0             -1343.7338     -5.3344143    
SHAKE stats (type/ave/delta/count) on step 4600000
Bond:   1   1         1.15926e-06     6906
Angle:  1   109.47    0.00010438      3453
   4600000   131.77111     -1610.6979      0             -1345.9237     -5.5056604    
SHAKE stats (type/ave/delta/count) on step 4610000
Bond:   1   1         1.17015e-06     6906
Angle:  1   109.47    0.000100423     3453
   4610000   134.57267     -1615.3816      0             -1344.9782      0.8325954    
SHAKE stats (type/ave/delta/count) on step 4620000
Bond:   1   1         1.31495e-06     6906
Angle:  1   109.47    0.000121954     3453
   4620000   133.38711     -1607.0673      0             -1339.046      -5.4012112    
SHAKE stats (type/ave/delta/count) on step 4630000
Bond:   1   1         1.22895e-06     6906
Angle:  1   109.47    9.44231e-05     3453
   4630000   131.86676     -1609.6362      0             -1344.6698     -14.81125     
SHAKE stats (type/ave/delta/count) on step 4640000
Bond:   1   1         1.14764e-06     6906
Angle:  1   109.47    9.63938e-05     3453
   4640000   134.7853      -1604.0443      0             -1333.2136     -6.2194091    
SHAKE stats (type/ave/delta/count) on step 4650000
Bond:   1   1         1.21587e-06     6906
Angle:  1   109.47    9.22743e-05     3453
   4650000   132.90026     -1607.5672      0             -1340.5242     -9.6126398    
SHAKE stats (type/ave/delta/count) on step 4660000
Bond:   1   1         1.16845e-06     6906
Angle:  1   109.47    9.81467e-05     3453
   4660000   134.04936     -1615.8236      0             -1346.4717     -2.39946      
SHAKE stats (type/ave/delta/count) on step 4670000
Bond:   1   1         1.20291e-06     6906
Angle:  1   109.47    0.000105929     3453
   4670000   132.48578     -1602.1625      0             -1335.9523     -10.628793    
SHAKE stats (type/ave/delta/count) on step 4680000
Bond:   1   1         1.48838e-06     6906
Angle:  1   109.47    0.000107765     3453
   4680000   130.42464     -1621.5887      0             -1359.5201      0.98517554   
SHAKE stats (type/ave/delta/count) on step 4690000
Bond:   1   1         1.30587e-06     6906
Angle:  1   109.47    9.41415e-05     3453
   4690000   130.85313     -1618.2862      0             -1355.3566     -5.9399534    
SHAKE stats (type/ave/delta/count) on step 4700000
Bond:   1   1         1.51931e-06     6906
Angle:  1   109.47    0.000113839     3453
   4700000   132.76186     -1615.1666      0             -1348.4017     -15.805288    
SHAKE stats (type/ave/delta/count) on step 4710000
Bond:   1   1         1.41921e-06     6906
Angle:  1   109.47    0.00010109      3453
   4710000   132.06354     -1605.7415      0             -1340.3798     -20.400093    
SHAKE stats (type/ave/delta/count) on step 4720000
Bond:   1   1         1.22124e-06     6906
Angle:  1   109.47    0.000100157     3453
   4720000   130.88358     -1614.3263      0             -1351.3355     -13.197761    
SHAKE stats (type/ave/delta/count) on step 4730000
Bond:   1   1         1.1528e-06      6906
Angle:  1   109.47    9.7932e-05      3453
   4730000   132.99031     -1612.6294      0             -1345.4055     -8.2821771    
SHAKE stats (type/ave/delta/count) on step 4740000
Bond:   1   1         1.26251e-06     6906
Angle:  1   109.47    0.000116932     3453
   4740000   133.29071     -1602.6477      0             -1334.8201     -21.920664    
SHAKE stats (type/ave/delta/count) on step 4750000
Bond:   1   1         1.41927e-06     6906
Angle:  1   109.47    9.38129e-05     3453
   4750000   132.92774     -1613.3493      0             -1346.251      -12.082419    
SHAKE stats (type/ave/delta/count) on step 4760000
Bond:   1   1         1.3002e-06      6906
Angle:  1   109.47    9.92337e-05     3453
   4760000   132.30392     -1611.4368      0             -1345.5921     -16.038733    
SHAKE stats (type/ave/delta/count) on step 4770000
Bond:   1   1         1.2087e-06      6906
Angle:  1   109.47    9.30003e-05     3453
   4770000   133.58576     -1612.6541      0             -1344.2337     -13.07235     
SHAKE stats (type/ave/delta/count) on step 4780000
Bond:   1   1         1.11209e-06     6906
Angle:  1   109.47    9.84255e-05     3453
   4780000   131.1763      -1611.8805      0             -1348.3016     -11.107236    
SHAKE stats (type/ave/delta/count) on step 4790000
Bond:   1   1         1.22264e-06     6906
Angle:  1   109.47    9.1031e-05      3453
   4790000   133.3923      -1609.7189      0             -1341.6872     -3.8875331    
SHAKE stats (type/ave/delta/count) on step 4800000
Bond:   1   1         1.24082e-06     6906
Angle:  1   109.47    0.000106023     3453
   4800000   133.89204     -1611.5189      0             -1342.4831     -6.002441     
SHAKE stats (type/ave/delta/count) on step 4810000
Bond:   1   1         1.17535e-06     6906
Angle:  1   109.47    8.77143e-05     3453
   4810000   132.87492     -1607.7597      0             -1340.7677     -14.560784    
SHAKE stats (type/ave/delta/count) on step 4820000
Bond:   1   1         1.33518e-06     6906
Angle:  1   109.47    0.000100261     3453
   4820000   131.4034      -1611.2976      0             -1347.2623     -14.252185    
SHAKE stats (type/ave/delta/count) on step 4830000
Bond:   1   1         1.30977e-06     6906
Angle:  1   109.47    9.55396e-05     3453
   4830000   131.00318     -1618.6631      0             -1355.432      -12.373079    
SHAKE stats (type/ave/delta/count) on step 4840000
Bond:   1   1         1.2639e-06      6906
Angle:  1   109.47    0.000104191     3453
   4840000   134.10287     -1611.7463      0             -1342.2868     -0.1491389    
SHAKE stats (type/ave/delta/count) on step 4850000
Bond:   1   1         1.26287e-06     6906
Angle:  1   109.47    9.45023e-05     3453
   4850000   134.68222     -1606.9918      0             -1336.3682     -9.0965433    
SHAKE stats (type/ave/delta/count) on step 4860000
Bond:   1   1         1.24917e-06     6906
Angle:  1   109.47    9.56641e-05     3453
   4860000   135.97079     -1606.8697      0             -1333.6569     -7.2456161    
SHAKE stats (type/ave/delta/count) on step 4870000
Bond:   1   1         1.23954e-06     6906
Angle:  1   109.47    0.000117896     3453
   4870000   132.27234     -1612.5557      0             -1346.7744     -6.6570283    
SHAKE stats (type/ave/delta/count) on step 4880000
Bond:   1   1         1.39385e-06     6906
Angle:  1   109.47    9.83851e-05     3453
   4880000   133.0744      -1604.7705      0             -1337.3776     -2.2234319    
SHAKE stats (type/ave/delta/count) on step 4890000
Bond:   1   1         1.4055e-06      6906
Angle:  1   109.47    0.000111174     3453
   4890000   133.97296     -1608.8617      0             -1339.6632     -9.5027002    
SHAKE stats (type/ave/delta/count) on step 4900000
Bond:   1   1         1.63819e-06     6906
Angle:  1   109.47    0.000137114     3453
   4900000   132.73814     -1610.2788      0             -1343.5616     -7.4234799    
SHAKE stats (type/ave/delta/count) on step 4910000
Bond:   1   1         1.19659e-06     6906
Angle:  1   109.47    9.47516e-05     3453
   4910000   131.30757     -1612.8464      0             -1349.0037     -11.350095    
SHAKE stats (type/ave/delta/count) on step 4920000
Bond:   1   1         1.1543e-06      6906
Angle:  1   109.47    9.43046e-05     3453
   4920000   132.52164     -1611.5702      0             -1345.2879      0.85368755   
SHAKE stats (type/ave/delta/count) on step 4930000
Bond:   1   1         1.64049e-06     6906
Angle:  1   109.47    9.58892e-05     3453
   4930000   134.62122     -1615.5001      0             -1344.9991     -9.6089091    
SHAKE stats (type/ave/delta/count) on step 4940000
Bond:   1   1         1.13659e-06     6906
Angle:  1   109.47    9.64433e-05     3453
   4940000   135.41529     -1617.1547      0             -1345.0581     -6.6558793    
SHAKE stats (type/ave/delta/count) on step 4950000
Bond:   1   1         1.41504e-06     6906
Angle:  1   109.47    0.000108817     3453
   4950000   133.88488     -1621.3059      0             -1352.2845     -1.554841     
SHAKE stats (type/ave/delta/count) on step 4960000
Bond:   1   1         1.50706e-06     6906
Angle:  1   109.47    0.000106635     3453
   4960000   132.5248      -1611.0801      0             -1344.7915     -12.716387    
SHAKE stats (type/ave/delta/count) on step 4970000
Bond:   1   1         1.14501e-06     6906
Angle:  1   109.47    9.66118e-05     3453
   4970000   134.92812     -1601.0948      0             -1329.9771     -5.4639783    
SHAKE stats (type/ave/delta/count) on step 4980000
Bond:   1   1         1.17679e-06     6906
Angle:  1   109.47    9.15856e-05     3453
   4980000   133.51201     -1614.5452      0             -1346.2729      1.0760522    
SHAKE stats (type/ave/delta/count) on step 4990000
Bond:   1   1         1.11289e-06     6906
Angle:  1   109.47    0.000100605     3453
   4990000   134.29031     -1605.3956      0             -1335.5595     -7.7359541    
SHAKE stats (type/ave/delta/count) on step 5000000
Bond:   1   1         1.10027e-06     6906
Angle:  1   109.47    9.20003e-05     3453
   5000000   131.11411     -1608.4739      0             -1345.0199     -3.7998147    
SHAKE stats (type/ave/delta/count) on step 5010000
Bond:   1   1         1.49931e-06     6906
Angle:  1   109.47    0.000118541     3453
   5010000   130.89241     -1611.6242      0             -1348.6157     -25.021907    
SHAKE stats (type/ave/delta/count) on step 5020000
Bond:   1   1         1.23403e-06     6906
Angle:  1   109.47    9.87602e-05     3453
   5020000   133.17396     -1611.7896      0             -1344.1966     -11.37024     
SHAKE stats (type/ave/delta/count) on step 5030000
Bond:   1   1         1.28567e-06     6906
Angle:  1   109.47    9.35432e-05     3453
   5030000   133.31427     -1608.0711      0             -1340.1962     -22.903358    
SHAKE stats (type/ave/delta/count) on step 5040000
Bond:   1   1         1.21018e-06     6906
Angle:  1   109.47    9.72188e-05     3453
   5040000   134.26315     -1619.4022      0             -1349.6207      0.097396708  
SHAKE stats (type/ave/delta/count) on step 5050000
Bond:   1   1         1.42622e-06     6906
Angle:  1   109.47    0.000107592     3453
   5050000   135.72436     -1609.2385      0             -1336.5209     -17.699499    
SHAKE stats (type/ave/delta/count) on step 5060000
Bond:   1   1         1.33263e-06     6906
Angle:  1   109.47    0.000100673     3453
   5060000   133.7535      -1612.5501      0             -1343.7927     -18.5341      
SHAKE stats (type/ave/delta/count) on step 5070000
Bond:   1   1         1.25803e-06     6906
Angle:  1   109.47    0.000106791     3453
   5070000   132.26816     -1611.2927      0             -1345.5198     -29.314685    
SHAKE stats (type/ave/delta/count) on step 5080000
Bond:   1   1         1.41935e-06     6906
Angle:  1   109.47    0.000119412     3453
   5080000   134.01593     -1608.7367      0             -1339.4519     -11.697198    
SHAKE stats (type/ave/delta/count) on step 5090000
Bond:   1   1         1.22966e-06     6906
Angle:  1   109.47    9.267e-05       3453
   5090000   132.74713     -1600.6473      0             -1333.912      -12.140093    
SHAKE stats (type/ave/delta/count) on step 5100000
Bond:   1   1         1.14196e-06     6906
Angle:  1   109.47    9.51001e-05     3453
   5100000   135.67222     -1606.9037      0             -1334.2908     -8.5262055    
SHAKE stats (type/ave/delta/count) on step 5110000
Bond:   1   1         1.20171e-06     6906
Angle:  1   109.47    9.09821e-05     3453
   5110000   133.8087      -1611.153       0             -1342.2846      7.2369775    
SHAKE stats (type/ave/delta/count) on step 5120000
Bond:   1   1         1.14822e-06     6906
Angle:  1   109.47    9.86195e-05     3453
   5120000   134.17918     -1618.5069      0             -1348.8942     -8.3752613    
SHAKE stats (type/ave/delta/count) on step 5130000
Bond:   1   1         1.13357e-06     6906
Angle:  1   109.47    9.4846e-05      3453
   5130000   134.75631     -1616.6177      0             -1345.8452     -0.39639159   
SHAKE stats (type/ave/delta/count) on step 5140000
Bond:   1   1         1.32281e-06     6906
Angle:  1   109.47    9.91618e-05     3453
   5140000   133.62713     -1613.1014      0             -1344.5978     -0.26984919   
SHAKE stats (type/ave/delta/count) on step 5150000
Bond:   1   1         1.46148e-06     6906
Angle:  1   109.47    0.000103705     3453
   5150000   133.4706      -1611.2313      0             -1343.0422     -12.58792     
SHAKE stats (type/ave/delta/count) on step 5160000
Bond:   1   1         1.43728e-06     6906
Angle:  1   109.47    0.000106791     3453
   5160000   133.97977     -1610.6747      0             -1341.4625     -16.225732    
SHAKE stats (type/ave/delta/count) on step 5170000
Bond:   1   1         1.21699e-06     6906
Angle:  1   109.47    8.97636e-05     3453
   5170000   133.36652     -1619.1459      0             -1351.166      -14.145161    
SHAKE stats (type/ave/delta/count) on step 5180000
Bond:   1   1         1.38976e-06     6906
Angle:  1   109.47    9.70083e-05     3453
   5180000   133.89983     -1612.641       0             -1343.5895     -10.76527     
SHAKE stats (type/ave/delta/count) on step 5190000
Bond:   1   1         1.21457e-06     6906
Angle:  1   109.47    9.19606e-05     3453
   5190000   134.10234     -1605.7605      0             -1336.3021     -10.466813    
SHAKE stats (type/ave/delta/count) on step 5200000
Bond:   1   1         1.30665e-06     6906
Angle:  1   109.47    0.000104117     3453
   5200000   134.09324     -1613.9351      0             -1344.495       0.20164298   
SHAKE stats (type/ave/delta/count) on step 5210000
Bond:   1   1         1.23763e-06     6906
Angle:  1   109.47    9.82716e-05     3453
   5210000   131.81003     -1611.413       0             -1346.5607     -18.363943    
SHAKE stats (type/ave/delta/count) on step 5220000
Bond:   1   1         1.20977e-06     6906
Angle:  1   109.47    0.000106173     3453
   5220000   134.41351     -1609.9028      0             -1339.8191     -9.3833955    
SHAKE stats (type/ave/delta/count) on step 5230000
Bond:   1   1         1.14672e-06     6906
Angle:  1   109.47    9.48769e-05     3453
   5230000   135.79891     -1614.6753      0             -1341.808      -9.956863     
SHAKE stats (type/ave/delta/count) on step 5240000
Bond:   1   1         1.07892e-06     6906
Angle:  1   109.47    9.37249e-05     3453
   5240000   132.98746     -1608.8459      0             -1341.6276     -4.6969696    
SHAKE stats (type/ave/delta/count) on step 5250000
Bond:   1   1         1.73602e-06     6906
Angle:  1   109.47    9.60034e-05     3453
   5250000   133.12482     -1616.181       0             -1348.6868     -18.094244    
SHAKE stats (type/ave/delta/count) on step 5260000
Bond:   1   1         1.30559e-06     6906
Angle:  1   109.47    0.000106767     3453
   5260000   132.38366     -1618.3134      0             -1352.3085     -11.507372    
SHAKE stats (type/ave/delta/count) on step 5270000
Bond:   1   1         1.59231e-06     6906
Angle:  1   109.47    0.000117018     3453
   5270000   134.28364     -1608.42        0             -1338.5973     -5.3252657    
SHAKE stats (type/ave/delta/count) on step 5280000
Bond:   1   1         1.16013e-06     6906
Angle:  1   109.47    8.94467e-05     3453
   5280000   131.23159     -1608.23        0             -1344.5399     -23.274374    
SHAKE stats (type/ave/delta/count) on step 5290000
Bond:   1   1         1.36008e-06     6906
Angle:  1   109.47    0.00010438      3453
   5290000   132.60177     -1616.6         0             -1350.1567     -4.1275232    
SHAKE stats (type/ave/delta/count) on step 5300000
Bond:   1   1         1.66051e-06     6906
Angle:  1   109.47    0.000130299     3453
   5300000   130.77682     -1610.0355      0             -1347.2592     -4.6146759    
SHAKE stats (type/ave/delta/count) on step 5310000
Bond:   1   1         1.16497e-06     6906
Angle:  1   109.47    9.69396e-05     3453
   5310000   132.03401     -1612.2073      0             -1346.9049      3.0882955    
SHAKE stats (type/ave/delta/count) on step 5320000
Bond:   1   1         1.58429e-06     6906
Angle:  1   109.47    0.000109806     3453
   5320000   132.05768     -1605.1489      0             -1339.7989     -9.2331257    
SHAKE stats (type/ave/delta/count) on step 5330000
Bond:   1   1         1.54708e-06     6906
Angle:  1   109.47    0.000116551     3453
   5330000   132.98358     -1611.8174      0             -1344.607      -7.2754728    
SHAKE stats (type/ave/delta/count) on step 5340000
Bond:   1   1         1.41145e-06     6906
Angle:  1   109.47    0.000112419     3453
   5340000   132.05176     -1620.3482      0             -1355.0101     -17.659201    
SHAKE stats (type/ave/delta/count) on step 5350000
Bond:   1   1         1.68207e-06     6906
Angle:  1   109.47    0.000127419     3453
   5350000   132.49768     -1611.773       0             -1345.539      -12.624243    
SHAKE stats (type/ave/delta/count) on step 5360000
Bond:   1   1         1.16124e-06     6906
Angle:  1   109.47    9.38967e-05     3453
   5360000   132.79162     -1605.3813      0             -1338.5566     -8.1837572    
SHAKE stats (type/ave/delta/count) on step 5370000
Bond:   1   1         1.33258e-06     6906
Angle:  1   109.47    9.75235e-05     3453
   5370000   132.90124     -1605.9581      0             -1338.9131     -7.7588069    
SHAKE stats (type/ave/delta/count) on step 5380000
Bond:   1   1         1.58886e-06     6906
Angle:  1   109.47    9.81769e-05     3453
   5380000   134.6879      -1613.0191      0             -1342.3841     -5.0773303    
SHAKE stats (type/ave/delta/count) on step 5390000
Bond:   1   1         1.51721e-06     6906
Angle:  1   109.47    0.00011301      3453
   5390000   130.43445     -1613.591       0             -1351.5027     -12.239401    
SHAKE stats (type/ave/delta/count) on step 5400000
Bond:   1   1         1.28525e-06     6906
Angle:  1   109.47    9.21327e-05     3453
   5400000   131.42958     -1611.4082      0             -1347.3203     -6.2280364    
SHAKE stats (type/ave/delta/count) on step 5410000
Bond:   1   1         1.27853e-06     6906
Angle:  1   109.47    9.75655e-05     3453
   5410000   132.02761     -1609.8275      0             -1344.538      -6.4504087    
SHAKE stats (type/ave/delta/count) on step 5420000
Bond:   1   1         1.3392e-06      6906
Angle:  1   109.47    0.000101148     3453
   5420000   130.87008     -1614.6972      0             -1351.7335     -6.5739671    
SHAKE stats (type/ave/delta/count) on step 5430000
Bond:   1   1         1.33969e-06     6906
Angle:  1   109.47    0.000103354     3453
   5430000   132.10485     -1613.9338      0             -1348.4891      0.67620914   
SHAKE stats (type/ave/delta/count) on step 5440000
Bond:   1   1         1.20714e-06     6906
Angle:  1   109.47    0.000103985     3453
   5440000   133.26803     -1611.2328      0             -1343.4508     -20.020625    
SHAKE stats (type/ave/delta/count) on step 5450000
Bond:   1   1         1.21148e-06     6906
Angle:  1   109.47    9.09335e-05     3453
   5450000   133.24937     -1615.2917      0             -1347.5472     -13.954957    
SHAKE stats (type/ave/delta/count) on step 5460000
Bond:   1   1         1.86962e-06     6906
Angle:  1   109.47    0.000120041     3453
   5460000   133.35844     -1615.2261      0             -1347.2624     -11.632483    
SHAKE stats (type/ave/delta/count) on step 5470000
Bond:   1   1         1.32501e-06     6906
Angle:  1   109.47    9.48696e-05     3453
   5470000   134.26944     -1609.1408      0             -1339.3466     -4.2624067    
SHAKE stats (type/ave/delta/count) on step 5480000
Bond:   1   1         1.3673e-06      6906
Angle:  1   109.47    9.58402e-05     3453
   5480000   134.92113     -1608.7158      0             -1337.6122     -1.0541405    
SHAKE stats (type/ave/delta/count) on step 5490000
Bond:   1   1         1.38549e-06     6906
Angle:  1   109.47    0.000112257     3453
   5490000   132.94806     -1610.1339      0             -1342.9948      3.7440671    
SHAKE stats (type/ave/delta/count) on step 5500000
Bond:   1   1         1.5926e-06      6906
Angle:  1   109.47    0.000109678     3453
   5500000   134.12416     -1612.856       0             -1343.3537     -10.045556    
SHAKE stats (type/ave/delta/count) on step 5510000
Bond:   1   1         1.35037e-06     6906
Angle:  1   109.47    0.000108132     3453
   5510000   134.30474     -1607.3935      0             -1337.5284      1.184528     
SHAKE stats (type/ave/delta/count) on step 5520000
Bond:   1   1         1.50254e-06     6906
Angle:  1   109.47    0.000101972     3453
   5520000   132.70719     -1612.0396      0             -1345.3846     -8.9044226    
SHAKE stats (type/ave/delta/count) on step 5530000
Bond:   1   1         1.10576e-06     6906
Angle:  1   109.47    9.58693e-05     3453
   5530000   132.33149     -1612.3504      0             -1346.4502     -17.258995    
SHAKE stats (type/ave/delta/count) on step 5540000
Bond:   1   1         1.17212e-06     6906
Angle:  1   109.47    0.000100022     3453
   5540000   132.19705     -1610.4394      0             -1344.8094     -8.4724868    
SHAKE stats (type/ave/delta/count) on step 5550000
Bond:   1   1         1.48061e-06     6906
Angle:  1   109.47    0.000115724     3453
   5550000   132.32816     -1609.5721      0             -1343.6786      4.7083779    
SHAKE stats (type/ave/delta/count) on step 5560000
Bond:   1   1         1.12097e-06     6906
Angle:  1   109.47    0.000101247     3453
   5560000   130.80455     -1607.5359      0             -1344.7039     -3.4606191    
SHAKE stats (type/ave/delta/count) on step 5570000
Bond:   1   1         1.23267e-06     6906
Angle:  1   109.47    9.83812e-05     3453
   5570000   134.53446     -1612.3738      0             -1342.0472     -2.9059422    
SHAKE stats (type/ave/delta/count) on step 5580000
Bond:   1   1         1.09265e-06     6906
Angle:  1   109.47    0.000111069     3453
   5580000   133.19663     -1618.5607      0             -1350.9222     -7.4386988    
SHAKE stats (type/ave/delta/count) on step 5590000
Bond:   1   1         1.23541e-06     6906
Angle:  1   109.47    0.000102735     3453
   5590000   133.49536     -1607.5059      0             -1339.2671     -8.2077142    
SHAKE stats (type/ave/delta/count) on step 5600000
Bond:   1   1         1.25966e-06     6906
Angle:  1   109.47    0.000102008     3453
   5600000   134.50592     -1613.5839      0             -1343.3146      0.011699964  
SHAKE stats (type/ave/delta/count) on step 5610000
Bond:   1   1         1.24021e-06     6906
Angle:  1   109.47    0.000104516     3453
   5610000   133.57785     -1611.5092      0             -1343.1047     -7.4218617    
SHAKE stats (type/ave/delta/count) on step 5620000
Bond:   1   1         1.42695e-06     6906
Angle:  1   109.47    0.000101666     3453
   5620000   132.38895     -1614.2911      0             -1348.2755     -7.2328232    
SHAKE stats (type/ave/delta/count) on step 5630000
Bond:   1   1         1.10036e-06     6906
Angle:  1   109.47    9.31182e-05     3453
   5630000   132.30749     -1605.2623      0             -1339.4104     -3.7809234    
SHAKE stats (type/ave/delta/count) on step 5640000
Bond:   1   1         1.18974e-06     6906
Angle:  1   109.47    0.000104926     3453
   5640000   134.0379      -1615.3716      0             -1346.0427     -15.615581    
SHAKE stats (type/ave/delta/count) on step 5650000
Bond:   1   1         1.1935e-06      6906
Angle:  1   109.47    9.39055e-05     3453
   5650000   130.99145     -1611.2573      0             -1348.0498     -7.0461368    
SHAKE stats (type/ave/delta/count) on step 5660000
Bond:   1   1         1.14408e-06     6906
Angle:  1   109.47    9.49966e-05     3453
   5660000   130.6424      -1616.8307      0             -1354.3246     -5.1859222    
SHAKE stats (type/ave/delta/count) on step 5670000
Bond:   1   1         1.30094e-06     6906
Angle:  1   109.47    8.86006e-05     3453
   5670000   132.77204     -1602.7347      0             -1335.9494     -16.279731    
SHAKE stats (type/ave/delta/count) on step 5680000
Bond:   1   1         1.13451e-06     6906
Angle:  1   109.47    9.79821e-05     3453
   5680000   131.68625     -1613.3175      0             -1348.7139     -11.66232     
SHAKE stats (type/ave/delta/count) on step 5690000
Bond:   1   1         1.76202e-06     6906
Angle:  1   109.47    0.000115077     3453
   5690000   136.08661     -1611.4044      0             -1337.9589     -11.496499    
SHAKE stats (type/ave/delta/count) on step 5700000
Bond:   1   1         1.34781e-06     6906
Angle:  1   109.47    0.000111933     3453
   5700000   134.49911     -1606.7072      0             -1336.4516     -3.1864542    
SHAKE stats (type/ave/delta/count) on step 5710000
Bond:   1   1         1.15347e-06     6906
Angle:  1   109.47    8.83994e-05     3453
   5710000   131.62956     -1613.2284      0             -1348.7387     -10.346605    
SHAKE stats (type/ave/delta/count) on step 5720000
Bond:   1   1         1.25641e-06     6906
Angle:  1   109.47    0.000104371     3453
   5720000   136.3449      -1607.9128      0             -1333.9484     -16.101137    
SHAKE stats (type/ave/delta/count) on step 5730000
Bond:   1   1         1.5832e-06      6906
Angle:  1   109.47    0.000118375     3453
   5730000   134.64902     -1613.0125      0             -1342.4556     -12.921919    
SHAKE stats (type/ave/delta/count) on step 5740000
Bond:   1   1         1.17537e-06     6906
Angle:  1   109.47    9.62595e-05     3453
   5740000   133.2527      -1610.2402      0             -1342.4891     -3.7734133    
SHAKE stats (type/ave/delta/count) on step 5750000
Bond:   1   1         1.25296e-06     6906
Angle:  1   109.47    9.5227e-05      3453
   5750000   133.33048     -1610.7283      0             -1342.8209     -11.344846    
SHAKE stats (type/ave/delta/count) on step 5760000
Bond:   1   1         1.55474e-06     6906
Angle:  1   109.47    0.000107849     3453
   5760000   134.80016     -1615.2382      0             -1344.3776      6.5013799    
SHAKE stats (type/ave/delta/count) on step 5770000
Bond:   1   1         1.5448e-06      6906
Angle:  1   109.47    9.7703e-05      3453
   5770000   132.7212      -1611.9507      0             -1345.2674     -9.066451     
SHAKE stats (type/ave/delta/count) on step 5780000
Bond:   1   1         1.26434e-06     6906
Angle:  1   109.47    9.83403e-05     3453
   5780000   132.1432      -1602.0933      0             -1336.5715     -15.651856    
SHAKE stats (type/ave/delta/count) on step 5790000
Bond:   1   1         1.35257e-06     6906
Angle:  1   109.47    9.54633e-05     3453
   5790000   131.50849     -1616.2385      0             -1351.9921     -11.559084    
SHAKE stats (type/ave/delta/count) on step 5800000
Bond:   1   1         1.37683e-06     6906
Angle:  1   109.47    0.000104412     3453
   5800000   132.51917     -1612.8738      0             -1346.5965     -9.0585356    
SHAKE stats (type/ave/delta/count) on step 5810000
Bond:   1   1         1.27055e-06     6906
Angle:  1   109.47    0.000104443     3453
   5810000   132.84729     -1612.8916      0             -1345.955      -22.867955    
SHAKE stats (type/ave/delta/count) on step 5820000
Bond:   1   1         1.2149e-06      6906
Angle:  1   109.47    9.46158e-05     3453
   5820000   134.72378     -1614.8631      0             -1344.156      -13.843162    
SHAKE stats (type/ave/delta/count) on step 5830000
Bond:   1   1         1.34108e-06     6906
Angle:  1   109.47    0.000103148     3453
   5830000   132.54713     -1605.47        0             -1339.1366     -2.5145074    
SHAKE stats (type/ave/delta/count) on step 5840000
Bond:   1   1         1.09326e-06     6906
Angle:  1   109.47    0.000109823     3453
   5840000   133.44363     -1609.3903      0             -1341.2555     -8.2236541    
SHAKE stats (type/ave/delta/count) on step 5850000
Bond:   1   1         1.22346e-06     6906
Angle:  1   109.47    0.000106089     3453
   5850000   133.98714     -1611.7056      0             -1342.4786     -8.2835009    
SHAKE stats (type/ave/delta/count) on step 5860000
Bond:   1   1         1.22416e-06     6906
Angle:  1   109.47    0.000116705     3453
   5860000   132.58068     -1618.2294      0             -1351.8286     -6.7643825    
SHAKE stats (type/ave/delta/count) on step 5870000
Bond:   1   1         1.46082e-06     6906
Angle:  1   109.47    0.000104068     3453
   5870000   132.4615      -1617.687       0             -1351.5256     -8.7402558    
SHAKE stats (type/ave/delta/count) on step 5880000
Bond:   1   1         1.26649e-06     6906
Angle:  1   109.47    9.76782e-05     3453
   5880000   134.88004     -1612.0101      0             -1340.989      -5.764128     
SHAKE stats (type/ave/delta/count) on step 5890000
Bond:   1   1         1.23582e-06     6906
Angle:  1   109.47    9.39073e-05     3453
   5890000   132.79454     -1614.0202      0             -1347.1896     -1.2045779    
SHAKE stats (type/ave/delta/count) on step 5900000
Bond:   1   1         1.30466e-06     6906
Angle:  1   109.47    0.000104609     3453
   5900000   133.94171     -1612.5665      0             -1343.4308     -9.540212     
SHAKE stats (type/ave/delta/count) on step 5910000
Bond:   1   1         1.31118e-06     6906
Angle:  1   109.47    0.000106176     3453
   5910000   135.51909     -1622.5298      0             -1350.2246     -23.443642    
SHAKE stats (type/ave/delta/count) on step 5920000
Bond:   1   1         1.21087e-06     6906
Angle:  1   109.47    0.000100777     3453
   5920000   133.06737     -1615.8746      0             -1348.4958     -9.1946118    
SHAKE stats (type/ave/delta/count) on step 5930000
Bond:   1   1         1.24384e-06     6906
Angle:  1   109.47    9.7609e-05      3453
   5930000   136.16459     -1610.4939      0             -1336.8917     -8.9885292    
SHAKE stats (type/ave/delta/count) on step 5940000
Bond:   1   1         1.49728e-06     6906
Angle:  1   109.47    9.36361e-05     3453
   5940000   133.03199     -1609.0133      0             -1341.7056     -11.410139    
SHAKE stats (type/ave/delta/count) on step 5950000
Bond:   1   1         1.31774e-06     6906
Angle:  1   109.47    0.0001082       3453
   5950000   134.11661     -1613.5018      0             -1344.0148     -7.951467     
SHAKE stats (type/ave/delta/count) on step 5960000
Bond:   1   1         1.49921e-06     6906
Angle:  1   109.47    0.000115077     3453
   5960000   133.14045     -1609.3732      0             -1341.8476     -3.5631102    
SHAKE stats (type/ave/delta/count) on step 5970000
Bond:   1   1         1.37326e-06     6906
Angle:  1   109.47    9.41584e-05     3453
   5970000   132.94596     -1616.835       0             -1349.7002     -10.347922    
SHAKE stats (type/ave/delta/count) on step 5980000
Bond:   1   1         1.34061e-06     6906
Angle:  1   109.47    0.000105501     3453
   5980000   132.01532     -1607.9463      0             -1342.6815     -11.803202    
SHAKE stats (type/ave/delta/count) on step 5990000
Bond:   1   1         1.47021e-06     6906
Angle:  1   109.47    0.000103296     3453
   5990000   132.28387     -1615.6609      0             -1349.8565     -4.5376539    
SHAKE stats (type/ave/delta/count) on step 6000000
Bond:   1   1         1.2518e-06      6906
Angle:  1   109.47    0.000100997     3453
   6000000   133.11765     -1618.7638      0             -1351.284      -8.6348469    
SHAKE stats (type/ave/delta/count) on step 6010000
Bond:   1   1         1.27899e-06     6906
Angle:  1   109.47    0.000115807     3453
   6010000   133.10363     -1603.3898      0             -1335.9381     -16.348005    
SHAKE stats (type/ave/delta/count) on step 6020000
Bond:   1   1         1.26279e-06     6906
Angle:  1   109.47    0.000104789     3453
   6020000   132.50067     -1608.1166      0             -1341.8765     -16.303367    
SHAKE stats (type/ave/delta/count) on step 6030000
Bond:   1   1         1.12195e-06     6906
Angle:  1   109.47    9.7874e-05      3453
   6030000   134.46499     -1620.8356      0             -1350.6485     -15.734813    
SHAKE stats (type/ave/delta/count) on step 6040000
Bond:   1   1         1.22772e-06     6906
Angle:  1   109.47    0.00010355      3453
   6040000   132.47438     -1609.4147      0             -1343.2274     -11.728317    
SHAKE stats (type/ave/delta/count) on step 6050000
Bond:   1   1         1.55995e-06     6906
Angle:  1   109.47    0.000110559     3453
   6050000   133.1575      -1619.194       0             -1351.6341      1.7397124    
SHAKE stats (type/ave/delta/count) on step 6060000
Bond:   1   1         1.14843e-06     6906
Angle:  1   109.47    0.000100407     3453
   6060000   133.08921     -1608.177       0             -1340.7544     -2.7892005    
SHAKE stats (type/ave/delta/count) on step 6070000
Bond:   1   1         1.27986e-06     6906
Angle:  1   109.47    9.14657e-05     3453
   6070000   131.66994     -1616.0879      0             -1351.517      -6.1422805    
SHAKE stats (type/ave/delta/count) on step 6080000
Bond:   1   1         1.45509e-06     6906
Angle:  1   109.47    9.25603e-05     3453
   6080000   133.36107     -1615.5123      0             -1347.5434      6.1355914    
SHAKE stats (type/ave/delta/count) on step 6090000
Bond:   1   1         1.14955e-06     6906
Angle:  1   109.47    0.000109234     3453
   6090000   131.29059     -1612.8868      0             -1349.0782     -10.236954    
SHAKE stats (type/ave/delta/count) on step 6100000
Bond:   1   1         1.15383e-06     6906
Angle:  1   109.47    0.000102781     3453
   6100000   134.20137     -1616.0414      0             -1346.384      -12.891867    
SHAKE stats (type/ave/delta/count) on step 6110000
Bond:   1   1         1.38036e-06     6906
Angle:  1   109.47    0.000105848     3453
   6110000   133.65807     -1612.9316      0             -1344.3659     -9.1755776    
SHAKE stats (type/ave/delta/count) on step 6120000
Bond:   1   1         1.3017e-06      6906
Angle:  1   109.47    9.87412e-05     3453
   6120000   133.99882     -1612.1116      0             -1342.8612     -4.7312112    
SHAKE stats (type/ave/delta/count) on step 6130000
Bond:   1   1         1.40399e-06     6906
Angle:  1   109.47    9.43343e-05     3453
   6130000   131.04076     -1610.9775      0             -1347.6709     -3.364401     
SHAKE stats (type/ave/delta/count) on step 6140000
Bond:   1   1         1.42869e-06     6906
Angle:  1   109.47    9.70194e-05     3453
   6140000   133.71185     -1609.8134      0             -1341.1397     -2.0508389    
SHAKE stats (type/ave/delta/count) on step 6150000
Bond:   1   1         1.18668e-06     6906
Angle:  1   109.47    9.73894e-05     3453
   6150000   133.70841     -1615.5188      0             -1346.8519      2.5411022    
SHAKE stats (type/ave/delta/count) on step 6160000
Bond:   1   1         1.4389e-06      6906
Angle:  1   109.47    9.97841e-05     3453
   6160000   131.67984     -1618.5938      0             -1354.0031     -4.0387866    
SHAKE stats (type/ave/delta/count) on step 6170000
Bond:   1   1         1.15188e-06     6906
Angle:  1   109.47    9.4864e-05      3453
   6170000   134.38178     -1606.517       0             -1336.4971     -7.6292002    
SHAKE stats (type/ave/delta/count) on step 6180000
Bond:   1   1         1.42344e-06     6906
Angle:  1   109.47    0.000104939     3453
   6180000   132.78712     -1613.7927      0             -1346.977      -15.672626    
SHAKE stats (type/ave/delta/count) on step 6190000
Bond:   1   1         1.15155e-06     6906
Angle:  1   109.47    9.39234e-05     3453
   6190000   132.8621      -1615.4664      0             -1348.5001     -8.9538382    
SHAKE stats (type/ave/delta/count) on step 6200000
Bond:   1   1         1.35257e-06     6906
Angle:  1   109.47    9.19973e-05     3453
   6200000   134.21089     -1617.3152      0             -1347.6387     -0.30288064   
SHAKE stats (type/ave/delta/count) on step 6210000
Bond:   1   1         1.48675e-06     6906
Angle:  1   109.47    0.000112332     3453
   6210000   135.52438     -1613.0111      0             -1340.6953     -7.4269345    
SHAKE stats (type/ave/delta/count) on step 6220000
Bond:   1   1         1.16108e-06     6906
Angle:  1   109.47    9.86486e-05     3453
   6220000   134.13606     -1611.4784      0             -1341.9523     -3.0793749    
SHAKE stats (type/ave/delta/count) on step 6230000
Bond:   1   1         1.4895e-06      6906
Angle:  1   109.47    0.000103488     3453
   6230000   135.0504      -1610.4185      0             -1339.0551     -9.7413339    
SHAKE stats (type/ave/delta/count) on step 6240000
Bond:   1   1         1.18834e-06     6906
Angle:  1   109.47    9.33558e-05     3453
   6240000   132.90798     -1609.0847      0             -1342.0261     -12.679521    
SHAKE stats (type/ave/delta/count) on step 6250000
Bond:   1   1         1.30083e-06     6906
Angle:  1   109.47    0.000113213     3453
   6250000   134.45032     -1614.4478      0             -1344.2902     -6.6010643    
SHAKE stats (type/ave/delta/count) on step 6260000
Bond:   1   1         1.15007e-06     6906
Angle:  1   109.47    9.87188e-05     3453
   6260000   133.7938      -1605.9397      0             -1337.1012     -16.495617    
SHAKE stats (type/ave/delta/count) on step 6270000
Bond:   1   1         1.16272e-06     6906
Angle:  1   109.47    9.31401e-05     3453
   6270000   132.08903     -1616.4783      0             -1351.0653     -6.1387111    
SHAKE stats (type/ave/delta/count) on step 6280000
Bond:   1   1         1.24823e-06     6906
Angle:  1   109.47    0.000108128     3453
   6280000   134.90675     -1612.846       0             -1341.7713     -21.280084    
SHAKE stats (type/ave/delta/count) on step 6290000
Bond:   1   1         1.47955e-06     6906
Angle:  1   109.47    0.000108388     3453
   6290000   131.63755     -1617.3339      0             -1352.8282     -4.9458399    
SHAKE stats (type/ave/delta/count) on step 6300000
Bond:   1   1         1.32246e-06     6906
Angle:  1   109.47    9.26772e-05     3453
   6300000   131.34483     -1618.724       0             -1354.8065     -21.365614    
SHAKE stats (type/ave/delta/count) on step 6310000
Bond:   1   1         1.24359e-06     6906
Angle:  1   109.47    9.82896e-05     3453
   6310000   133.42413     -1612.6502      0             -1344.5546     -5.9250842    
SHAKE stats (type/ave/delta/count) on step 6320000
Bond:   1   1         1.17541e-06     6906
Angle:  1   109.47    9.47196e-05     3453
   6320000   132.67959     -1611.2004      0             -1344.6008     -20.585273    
SHAKE stats (type/ave/delta/count) on step 6330000
Bond:   1   1         1.95774e-06     6906
Angle:  1   109.47    0.000153006     3453
   6330000   133.67627     -1611.6437      0             -1343.0414     -10.791101    
SHAKE stats (type/ave/delta/count) on step 6340000
Bond:   1   1         1.21444e-06     6906
Angle:  1   109.47    9.73529e-05     3453
   6340000   135.01108     -1612.1173      0             -1340.8329     -14.285015    
SHAKE stats (type/ave/delta/count) on step 6350000
Bond:   1   1         1.21924e-06     6906
Angle:  1   109.47    9.06706e-05     3453
   6350000   132.02889     -1600.0198      0             -1334.7277     -19.487187    
SHAKE stats (type/ave/delta/count) on step 6360000
Bond:   1   1         1.67105e-06     6906
Angle:  1   109.47    0.000133246     3453
   6360000   134.91334     -1616.2067      0             -1345.1187     -7.262788     
SHAKE stats (type/ave/delta/count) on step 6370000
Bond:   1   1         1.0953e-06      6906
Angle:  1   109.47    9.42549e-05     3453
   6370000   133.4187      -1610.2109      0             -1342.1262     -10.914682    
SHAKE stats (type/ave/delta/count) on step 6380000
Bond:   1   1         1.3401e-06      6906
Angle:  1   109.47    0.000106563     3453
   6380000   132.46622     -1603.2789      0             -1337.108      -13.495417    
SHAKE stats (type/ave/delta/count) on step 6390000
Bond:   1   1         1.21858e-06     6906
Angle:  1   109.47    9.92408e-05     3453
   6390000   133.73625     -1610.2945      0             -1341.5717     -13.179451    
SHAKE stats (type/ave/delta/count) on step 6400000
Bond:   1   1         1.17012e-06     6906
Angle:  1   109.47    0.000100388     3453
   6400000   132.77896     -1616.9668      0             -1350.1675     -9.8359318    
SHAKE stats (type/ave/delta/count) on step 6410000
Bond:   1   1         1.4103e-06      6906
Angle:  1   109.47    9.67482e-05     3453
   6410000   131.54764     -1607.7325      0             -1343.4074     -4.5068453    
SHAKE stats (type/ave/delta/count) on step 6420000
Bond:   1   1         1.24576e-06     6906
Angle:  1   109.47    9.55646e-05     3453
   6420000   132.14073     -1611.6183      0             -1346.1015     -22.230144    
SHAKE stats (type/ave/delta/count) on step 6430000
Bond:   1   1         1.12272e-06     6906
Angle:  1   109.47    0.000101597     3453
   6430000   134.39302     -1610.9179      0             -1340.8754     -10.589882    
SHAKE stats (type/ave/delta/count) on step 6440000
Bond:   1   1         1.48951e-06     6906
Angle:  1   109.47    0.000116312     3453
   6440000   135.02604     -1608.6383      0             -1337.3239     -9.6889668    
SHAKE stats (type/ave/delta/count) on step 6450000
Bond:   1   1         1.3207e-06      6906
Angle:  1   109.47    0.000106433     3453
   6450000   134.19066     -1612.0124      0             -1342.3766     -9.1519187    
SHAKE stats (type/ave/delta/count) on step 6460000
Bond:   1   1         1.25542e-06     6906
Angle:  1   109.47    0.000101353     3453
   6460000   132.88697     -1610.7901      0             -1343.7738     -7.0078497    
SHAKE stats (type/ave/delta/count) on step 6470000
Bond:   1   1         1.22188e-06     6906
Angle:  1   109.47    9.5989e-05      3453
   6470000   131.70484     -1613.9713      0             -1349.3303     -7.2135884    
SHAKE stats (type/ave/delta/count) on step 6480000
Bond:   1   1         1.19908e-06     6906
Angle:  1   109.47    0.000102726     3453
   6480000   133.45232     -1617.6131      0             -1349.4608     -8.4479245    
SHAKE stats (type/ave/delta/count) on step 6490000
Bond:   1   1         1.19359e-06     6906
Angle:  1   109.47    9.76356e-05     3453
   6490000   134.24436     -1613.2664      0             -1343.5226      1.0918271    
SHAKE stats (type/ave/delta/count) on step 6500000
Bond:   1   1         1.13991e-06     6906
Angle:  1   109.47    9.52033e-05     3453
   6500000   134.57642     -1605.9096      0             -1335.4986     -2.5974271    
SHAKE stats (type/ave/delta/count) on step 6510000
Bond:   1   1         1.38532e-06     6906
Angle:  1   109.47    9.5759e-05      3453
   6510000   132.92194     -1614.4863      0             -1347.3998     -13.06314     
SHAKE stats (type/ave/delta/count) on step 6520000
Bond:   1   1         1.60313e-06     6906
Angle:  1   109.47    9.49941e-05     3453
   6520000   133.11852     -1613.5653      0             -1346.0837     -5.8878212    
SHAKE stats (type/ave/delta/count) on step 6530000
Bond:   1   1         1.53384e-06     6906
Angle:  1   109.47    9.78776e-05     3453
   6530000   133.81973     -1608.7785      0             -1339.888      -8.1148866    
SHAKE stats (type/ave/delta/count) on step 6540000
Bond:   1   1         1.53661e-06     6906
Angle:  1   109.47    0.000117895     3453
   6540000   133.28557     -1613.5273      0             -1345.7101     -8.5361918    
SHAKE stats (type/ave/delta/count) on step 6550000
Bond:   1   1         1.33988e-06     6906
Angle:  1   109.47    0.000108286     3453
   6550000   133.48978     -1612.0897      0             -1343.8622     -8.0154165    
SHAKE stats (type/ave/delta/count) on step 6560000
Bond:   1   1         1.78545e-06     6906
Angle:  1   109.47    0.000103693     3453
   6560000   132.39137     -1615.4627      0             -1349.4422     -12.361729    
SHAKE stats (type/ave/delta/count) on step 6570000
Bond:   1   1         1.47803e-06     6906
Angle:  1   109.47    0.000101838     3453
   6570000   132.02946     -1600.8867      0             -1335.5934     -3.3896791    
SHAKE stats (type/ave/delta/count) on step 6580000
Bond:   1   1         1.1821e-06      6906
Angle:  1   109.47    0.000101758     3453
   6580000   134.81452     -1601.3398      0             -1330.4504     -17.754138    
SHAKE stats (type/ave/delta/count) on step 6590000
Bond:   1   1         1.21862e-06     6906
Angle:  1   109.47    0.000101546     3453
   6590000   134.03954     -1615.7457      0             -1346.4135     -8.8886687    
SHAKE stats (type/ave/delta/count) on step 6600000
Bond:   1   1         1.29499e-06     6906
Angle:  1   109.47    9.86444e-05     3453
   6600000   134.26666     -1618.0975      0             -1348.309      -3.2011366    
SHAKE stats (type/ave/delta/count) on step 6610000
Bond:   1   1         1.2673e-06      6906
Angle:  1   109.47    0.000107082     3453
   6610000   133.35058     -1609.9839      0             -1342.036      -14.547538    
SHAKE stats (type/ave/delta/count) on step 6620000
Bond:   1   1         1.47335e-06     6906
Angle:  1   109.47    9.78969e-05     3453
   6620000   134.06586     -1615.963       0             -1346.5779     -8.4694597    
SHAKE stats (type/ave/delta/count) on step 6630000
Bond:   1   1         1.6972e-06      6906
Angle:  1   109.47    0.00011382      3453
   6630000   134.54473     -1609.1787      0             -1338.8314     -6.8877195    
SHAKE stats (type/ave/delta/count) on step 6640000
Bond:   1   1         1.18023e-06     6906
Angle:  1   109.47    9.77045e-05     3453
   6640000   132.54256     -1612.8714      0             -1346.5472     -12.399705    
SHAKE stats (type/ave/delta/count) on step 6650000
Bond:   1   1         1.56717e-06     6906
Angle:  1   109.47    0.000134863     3453
   6650000   133.31974     -1614.5096      0             -1346.6237     -6.126851     
SHAKE stats (type/ave/delta/count) on step 6660000
Bond:   1   1         1.36454e-06     6906
Angle:  1   109.47    9.88047e-05     3453
   6660000   132.82509     -1609.0532      0             -1342.1613     -11.683249    
SHAKE stats (type/ave/delta/count) on step 6670000
Bond:   1   1         1.42697e-06     6906
Angle:  1   109.47    9.93151e-05     3453
   6670000   132.91155     -1613.8783      0             -1346.8126     -4.7648787    
SHAKE stats (type/ave/delta/count) on step 6680000
Bond:   1   1         1.60618e-06     6906
Angle:  1   109.47    0.000114447     3453
   6680000   132.88778     -1618.9255      0             -1351.9076     -1.7130041    
SHAKE stats (type/ave/delta/count) on step 6690000
Bond:   1   1         1.28185e-06     6906
Angle:  1   109.47    9.72494e-05     3453
   6690000   132.24148     -1618.2445      0             -1352.5253     -11.545886    
SHAKE stats (type/ave/delta/count) on step 6700000
Bond:   1   1         1.2465e-06      6906
Angle:  1   109.47    9.24961e-05     3453
   6700000   131.55986     -1614.6021      0             -1350.2524     -4.4043941    
SHAKE stats (type/ave/delta/count) on step 6710000
Bond:   1   1         1.32241e-06     6906
Angle:  1   109.47    9.93362e-05     3453
   6710000   132.25449     -1617.4378      0             -1351.6924     -1.4370492    
SHAKE stats (type/ave/delta/count) on step 6720000
Bond:   1   1         1.18319e-06     6906
Angle:  1   109.47    9.53039e-05     3453
   6720000   132.49983     -1617.3778      0             -1351.1394     -5.5073262    
SHAKE stats (type/ave/delta/count) on step 6730000
Bond:   1   1         1.18952e-06     6906
Angle:  1   109.47    0.000100193     3453
   6730000   131.87461     -1619.4259      0             -1354.4438     -9.9745506    
SHAKE stats (type/ave/delta/count) on step 6740000
Bond:   1   1         1.12618e-06     6906
Angle:  1   109.47    9.067e-05       3453
   6740000   131.52827     -1612.2673      0             -1347.9811     -15.094381    
SHAKE stats (type/ave/delta/count) on step 6750000
Bond:   1   1         1.1267e-06      6906
Angle:  1   109.47    9.68105e-05     3453
   6750000   134.2366      -1607.4102      0             -1337.682      -7.4732756    
SHAKE stats (type/ave/delta/count) on step 6760000
Bond:   1   1         1.23399e-06     6906
Angle:  1   109.47    9.60642e-05     3453
   6760000   135.01652     -1608.0833      0             -1336.788      -13.443792    
SHAKE stats (type/ave/delta/count) on step 6770000
Bond:   1   1         1.13428e-06     6906
Angle:  1   109.47    9.76172e-05     3453
   6770000   134.00065     -1615.126       0             -1345.8719     -14.490782    
SHAKE stats (type/ave/delta/count) on step 6780000
Bond:   1   1         1.23671e-06     6906
Angle:  1   109.47    9.70927e-05     3453
   6780000   133.63768     -1610.7832      0             -1342.2585     -8.8511528    
SHAKE stats (type/ave/delta/count) on step 6790000
Bond:   1   1         1.39541e-06     6906
Angle:  1   109.47    9.86774e-05     3453
   6790000   131.41697     -1616.9989      0             -1352.9363     -16.299899    
SHAKE stats (type/ave/delta/count) on step 6800000
Bond:   1   1         1.54508e-06     6906
Angle:  1   109.47    0.00011019      3453
   6800000   135.89749     -1608.3875      0             -1335.322      -8.7418612    
SHAKE stats (type/ave/delta/count) on step 6810000
Bond:   1   1         1.37615e-06     6906
Angle:  1   109.47    0.000103967     3453
   6810000   132.96738     -1611.3707      0             -1344.1929     -12.40754     
SHAKE stats (type/ave/delta/count) on step 6820000
Bond:   1   1         1.16856e-06     6906
Angle:  1   109.47    9.33492e-05     3453
   6820000   130.20259     -1613.3785      0             -1351.7561     -9.4109971    
SHAKE stats (type/ave/delta/count) on step 6830000
Bond:   1   1         1.16787e-06     6906
Angle:  1   109.47    0.000111639     3453
   6830000   131.66032     -1607.8027      0             -1343.2512     -13.574776    
SHAKE stats (type/ave/delta/count) on step 6840000
Bond:   1   1         1.27085e-06     6906
Angle:  1   109.47    0.000104434     3453
   6840000   134.15671     -1610.0877      0             -1340.5201     -11.947194    
SHAKE stats (type/ave/delta/count) on step 6850000
Bond:   1   1         1.21497e-06     6906
Angle:  1   109.47    0.000112761     3453
   6850000   132.35961     -1618.3323      0             -1352.3757     -6.9287793    
SHAKE stats (type/ave/delta/count) on step 6860000
Bond:   1   1         1.1666e-06      6906
Angle:  1   109.47    9.36289e-05     3453
   6860000   132.64902     -1609.8906      0             -1343.3525     -17.074531    
SHAKE stats (type/ave/delta/count) on step 6870000
Bond:   1   1         1.27268e-06     6906
Angle:  1   109.47    0.000102431     3453
   6870000   133.88315     -1616.863       0             -1347.8451     -22.278487    
SHAKE stats (type/ave/delta/count) on step 6880000
Bond:   1   1         1.44304e-06     6906
Angle:  1   109.47    0.000109073     3453
   6880000   132.55046     -1607.1495      0             -1340.8094     -13.715284    
SHAKE stats (type/ave/delta/count) on step 6890000
Bond:   1   1         1.12382e-06     6906
Angle:  1   109.47    9.9772e-05      3453
   6890000   132.909       -1609.6712      0             -1342.6107     -14.114242    
SHAKE stats (type/ave/delta/count) on step 6900000
Bond:   1   1         1.13516e-06     6906
Angle:  1   109.47    0.000100636     3453
   6900000   131.30645     -1618.8417      0             -1355.0012      0.54616803   
SHAKE stats (type/ave/delta/count) on step 6910000
Bond:   1   1         1.25511e-06     6906
Angle:  1   109.47    9.62577e-05     3453
   6910000   132.9944      -1613.2047      0             -1345.9726     -16.678008    
SHAKE stats (type/ave/delta/count) on step 6920000
Bond:   1   1         1.24375e-06     6906
Angle:  1   109.47    0.000104888     3453
   6920000   131.82957     -1609.242       0             -1344.3503     -2.3250484    
SHAKE stats (type/ave/delta/count) on step 6930000
Bond:   1   1         1.53501e-06     6906
Angle:  1   109.47    0.000118402     3453
   6930000   131.46627     -1611.1043      0             -1346.9426     -4.1751792    
SHAKE stats (type/ave/delta/count) on step 6940000
Bond:   1   1         1.20315e-06     6906
Angle:  1   109.47    9.10369e-05     3453
   6940000   130.14562     -1614.7488      0             -1353.2408     -5.5486196    
SHAKE stats (type/ave/delta/count) on step 6950000
Bond:   1   1         1.20402e-06     6906
Angle:  1   109.47    9.41807e-05     3453
   6950000   133.55504     -1612.7967      0             -1344.438      -7.5376334    
SHAKE stats (type/ave/delta/count) on step 6960000
Bond:   1   1         1.18832e-06     6906
Angle:  1   109.47    9.77583e-05     3453
   6960000   133.83661     -1615.5662      0             -1346.6417     -3.7518156    
SHAKE stats (type/ave/delta/count) on step 6970000
Bond:   1   1         1.1755e-06      6906
Angle:  1   109.47    9.72055e-05     3453
   6970000   132.17833     -1611.0159      0             -1345.4235     -0.58148579   
SHAKE stats (type/ave/delta/count) on step 6980000
Bond:   1   1         1.53065e-06     6906
Angle:  1   109.47    0.00011026      3453
   6980000   132.05315     -1614.0852      0             -1348.7443     -22.051221    
SHAKE stats (type/ave/delta/count) on step 6990000
Bond:   1   1         1.23448e-06     6906
Angle:  1   109.47    9.54574e-05     3453
   6990000   132.80371     -1606.2766      0             -1339.4276     -14.952237    
SHAKE stats (type/ave/delta/count) on step 7000000
Bond:   1   1         1.27756e-06     6906
Angle:  1   109.47    0.000104559     3453
   7000000   133.74222     -1610.9661      0             -1342.2313     -8.7192611    
SHAKE stats (type/ave/delta/count) on step 7010000
Bond:   1   1         1.32666e-06     6906
Angle:  1   109.47    0.000110565     3453
   7010000   134.11384     -1610.9102      0             -1341.4287     -13.427798    
SHAKE stats (type/ave/delta/count) on step 7020000
Bond:   1   1         1.59512e-06     6906
Angle:  1   109.47    0.000131345     3453
   7020000   132.04127     -1610.0293      0             -1344.7123     -5.3680177    
SHAKE stats (type/ave/delta/count) on step 7030000
Bond:   1   1         1.25493e-06     6906
Angle:  1   109.47    9.82949e-05     3453
   7030000   133.21781     -1611.9304      0             -1344.2493     -2.9010953    
SHAKE stats (type/ave/delta/count) on step 7040000
Bond:   1   1         1.43556e-06     6906
Angle:  1   109.47    0.00010702      3453
   7040000   133.8707      -1613.3063      0             -1344.3134     -6.4658436    
SHAKE stats (type/ave/delta/count) on step 7050000
Bond:   1   1         1.15204e-06     6906
Angle:  1   109.47    9.43036e-05     3453
   7050000   134.7201      -1612.6357      0             -1341.936      -16.933023    
SHAKE stats (type/ave/delta/count) on step 7060000
Bond:   1   1         1.38253e-06     6906
Angle:  1   109.47    0.000100714     3453
   7060000   134.3248      -1606.1007      0             -1336.1953     -8.9091656    
SHAKE stats (type/ave/delta/count) on step 7070000
Bond:   1   1         1.45294e-06     6906
Angle:  1   109.47    9.29894e-05     3453
   7070000   132.90062     -1609.0814      0             -1342.0377     -9.654114     
SHAKE stats (type/ave/delta/count) on step 7080000
Bond:   1   1         1.47144e-06     6906
Angle:  1   109.47    0.000102493     3453
   7080000   132.45857     -1607.4053      0             -1341.2498      0.1418665    
SHAKE stats (type/ave/delta/count) on step 7090000
Bond:   1   1         1.58322e-06     6906
Angle:  1   109.47    0.00011808      3453
   7090000   132.8187      -1611.7676      0             -1344.8885     -5.0655142    
SHAKE stats (type/ave/delta/count) on step 7100000
Bond:   1   1         1.51988e-06     6906
Angle:  1   109.47    0.000104434     3453
   7100000   131.91512     -1609.7171      0             -1344.6536     -24.303376    
SHAKE stats (type/ave/delta/count) on step 7110000
Bond:   1   1         1.422e-06       6906
Angle:  1   109.47    9.55799e-05     3453
   7110000   134.23342     -1613.6733      0             -1343.9515     -14.906344    
SHAKE stats (type/ave/delta/count) on step 7120000
Bond:   1   1         1.06749e-06     6906
Angle:  1   109.47    8.92899e-05     3453
   7120000   133.12968     -1615.7073      0             -1348.2033     -11.096231    
SHAKE stats (type/ave/delta/count) on step 7130000
Bond:   1   1         1.21921e-06     6906
Angle:  1   109.47    0.000106069     3453
   7130000   132.41902     -1615.8049      0             -1349.7289     -8.3886772    
SHAKE stats (type/ave/delta/count) on step 7140000
Bond:   1   1         1.37789e-06     6906
Angle:  1   109.47    0.000113318     3453
   7140000   133.21625     -1617.6579      0             -1349.98        5.6519093    
SHAKE stats (type/ave/delta/count) on step 7150000
Bond:   1   1         1.12238e-06     6906
Angle:  1   109.47    9.47872e-05     3453
   7150000   134.60928     -1611.5788      0             -1341.1018     -6.6650761    
SHAKE stats (type/ave/delta/count) on step 7160000
Bond:   1   1         1.15613e-06     6906
Angle:  1   109.47    9.26362e-05     3453
   7160000   133.31346     -1610.7253      0             -1342.852      -6.9925403    
SHAKE stats (type/ave/delta/count) on step 7170000
Bond:   1   1         1.32128e-06     6906
Angle:  1   109.47    0.000108        3453
   7170000   132.7603      -1618.9721      0             -1352.2103     -19.928485    
SHAKE stats (type/ave/delta/count) on step 7180000
Bond:   1   1         1.27749e-06     6906
Angle:  1   109.47    9.09745e-05     3453
   7180000   134.70454     -1610.1579      0             -1339.4895     -1.497524     
SHAKE stats (type/ave/delta/count) on step 7190000
Bond:   1   1         1.31871e-06     6906
Angle:  1   109.47    9.23893e-05     3453
   7190000   133.45428     -1609.8658      0             -1341.7096     -12.529695    
SHAKE stats (type/ave/delta/count) on step 7200000
Bond:   1   1         1.25679e-06     6906
Angle:  1   109.47    0.000105165     3453
   7200000   133.75279     -1610.9735      0             -1342.2174     -12.925179    
SHAKE stats (type/ave/delta/count) on step 7210000
Bond:   1   1         1.37572e-06     6906
Angle:  1   109.47    9.88928e-05     3453
   7210000   136.91519     -1614.49        0             -1339.3796     -0.020772868  
SHAKE stats (type/ave/delta/count) on step 7220000
Bond:   1   1         1.19248e-06     6906
Angle:  1   109.47    9.61944e-05     3453
   7220000   133.07745     -1612.0831      0             -1344.6841     -13.036322    
SHAKE stats (type/ave/delta/count) on step 7230000
Bond:   1   1         1.14616e-06     6906
Angle:  1   109.47    0.000105076     3453
   7230000   130.48457     -1607.9251      0             -1345.7361     -10.87632     
SHAKE stats (type/ave/delta/count) on step 7240000
Bond:   1   1         1.17993e-06     6906
Angle:  1   109.47    0.000105308     3453
   7240000   131.961       -1616.3773      0             -1351.2216     -20.403624    
SHAKE stats (type/ave/delta/count) on step 7250000
Bond:   1   1         1.23037e-06     6906
Angle:  1   109.47    9.99775e-05     3453
   7250000   134.14899     -1615.5404      0             -1345.9882     -14.828924    
SHAKE stats (type/ave/delta/count) on step 7260000
Bond:   1   1         1.41501e-06     6906
Angle:  1   109.47    0.000102525     3453
   7260000   135.52081     -1607.0666      0             -1334.758      -5.1024776    
SHAKE stats (type/ave/delta/count) on step 7270000
Bond:   1   1         1.33228e-06     6906
Angle:  1   109.47    9.95135e-05     3453
   7270000   132.77663     -1608.6454      0             -1341.8508     -9.6287751    
SHAKE stats (type/ave/delta/count) on step 7280000
Bond:   1   1         1.3867e-06      6906
Angle:  1   109.47    0.000126797     3453
   7280000   133.3902      -1615.5409      0             -1347.5134     -6.1725676    
SHAKE stats (type/ave/delta/count) on step 7290000
Bond:   1   1         1.21714e-06     6906
Angle:  1   109.47    9.43004e-05     3453
   7290000   132.15967     -1610.8139      0             -1345.259      -2.8675852    
SHAKE stats (type/ave/delta/count) on step 7300000
Bond:   1   1         1.24679e-06     6906
Angle:  1   109.47    0.000111177     3453
   7300000   133.54276     -1610.4597      0             -1342.1257      9.8925291    
SHAKE stats (type/ave/delta/count) on step 7310000
Bond:   1   1         1.15318e-06     6906
Angle:  1   109.47    9.04507e-05     3453
   7310000   132.85996     -1614.7264      0             -1347.7644     -13.813457    
SHAKE stats (type/ave/delta/count) on step 7320000
Bond:   1   1         1.42812e-06     6906
Angle:  1   109.47    0.000115123     3453
   7320000   132.13903     -1603.4871      0             -1337.9737     -18.279192    
SHAKE stats (type/ave/delta/count) on step 7330000
Bond:   1   1         1.33354e-06     6906
Angle:  1   109.47    0.000103625     3453
   7330000   133.33913     -1613.8436      0             -1345.9187      1.3814435    
SHAKE stats (type/ave/delta/count) on step 7340000
Bond:   1   1         1.53095e-06     6906
Angle:  1   109.47    0.000116478     3453
   7340000   133.44748     -1615.5564      0             -1347.4138     -10.139867    
SHAKE stats (type/ave/delta/count) on step 7350000
Bond:   1   1         1.39822e-06     6906
Angle:  1   109.47    0.000101628     3453
   7350000   135.14494     -1611.8704      0             -1340.317      -5.213838     
SHAKE stats (type/ave/delta/count) on step 7360000
Bond:   1   1         1.44696e-06     6906
Angle:  1   109.47    0.000113771     3453
   7360000   133.40269     -1605.6401      0             -1337.5876     -8.5961966    
SHAKE stats (type/ave/delta/count) on step 7370000
Bond:   1   1         1.10839e-06     6906
Angle:  1   109.47    9.22741e-05     3453
   7370000   131.54965     -1610.3834      0             -1346.0542     -16.279195    
SHAKE stats (type/ave/delta/count) on step 7380000
Bond:   1   1         1.46979e-06     6906
Angle:  1   109.47    0.000111613     3453
   7380000   134.7452      -1614.849       0             -1344.0988     -7.3416692    
SHAKE stats (type/ave/delta/count) on step 7390000
Bond:   1   1         1.44189e-06     6906
Angle:  1   109.47    0.000105582     3453
   7390000   131.72117     -1607.8469      0             -1343.1731     -6.5572918    
SHAKE stats (type/ave/delta/count) on step 7400000
Bond:   1   1         1.29011e-06     6906
Angle:  1   109.47    9.74923e-05     3453
   7400000   135.38865     -1608.5688      0             -1336.5258     -13.797479    
SHAKE stats (type/ave/delta/count) on step 7410000
Bond:   1   1         1.36826e-06     6906
Angle:  1   109.47    0.000106049     3453
   7410000   134.85707     -1611.3863      0             -1340.4114     -5.4370882    
SHAKE stats (type/ave/delta/count) on step 7420000
Bond:   1   1         1.57581e-06     6906
Angle:  1   109.47    0.000101166     3453
   7420000   133.78686     -1609.0412      0             -1340.2167     -9.8056472    
SHAKE stats (type/ave/delta/count) on step 7430000
Bond:   1   1         1.24481e-06     6906
Angle:  1   109.47    9.94254e-05     3453
   7430000   132.93318     -1616.9901      0             -1349.881      -8.2902742    
SHAKE stats (type/ave/delta/count) on step 7440000
Bond:   1   1         1.91873e-06     6906
Angle:  1   109.47    0.000128103     3453
   7440000   133.11545     -1615.1045      0             -1347.6291     -13.861411    
SHAKE stats (type/ave/delta/count) on step 7450000
Bond:   1   1         1.19638e-06     6906
Angle:  1   109.47    0.000103633     3453
   7450000   133.39321     -1605.9602      0             -1337.9267      0.80740552   
SHAKE stats (type/ave/delta/count) on step 7460000
Bond:   1   1         1.11578e-06     6906
Angle:  1   109.47    9.54754e-05     3453
   7460000   131.51415     -1610.787       0             -1346.5292     -7.3354166    
SHAKE stats (type/ave/delta/count) on step 7470000
Bond:   1   1         1.41836e-06     6906
Angle:  1   109.47    0.000109431     3453
   7470000   134.73827     -1612.1286      0             -1341.3923      4.5846517    
SHAKE stats (type/ave/delta/count) on step 7480000
Bond:   1   1         2.13995e-06     6906
Angle:  1   109.47    0.000139655     3453
   7480000   132.8543      -1614.6736      0             -1347.7229     -11.029741    
SHAKE stats (type/ave/delta/count) on step 7490000
Bond:   1   1         1.46589e-06     6906
Angle:  1   109.47    0.000104937     3453
   7490000   133.30197     -1609.6714      0             -1341.8212     -7.431891     
SHAKE stats (type/ave/delta/count) on step 7500000
Bond:   1   1         1.51206e-06     6906
Angle:  1   109.47    0.000116572     3453
   7500000   134.70032     -1617.61        0             -1346.9501     -3.8135461    
SHAKE stats (type/ave/delta/count) on step 7510000
Bond:   1   1         1.60292e-06     6906
Angle:  1   109.47    0.000100314     3453
   7510000   133.65636     -1609.852       0             -1341.2897     -6.0067377    
SHAKE stats (type/ave/delta/count) on step 7520000
Bond:   1   1         1.26871e-06     6906
Angle:  1   109.47    9.28049e-05     3453
   7520000   134.1269      -1615.8985      0             -1346.3908     -11.97108     
SHAKE stats (type/ave/delta/count) on step 7530000
Bond:   1   1         1.31706e-06     6906
Angle:  1   109.47    8.93433e-05     3453
   7530000   133.63186     -1613.7183      0             -1345.2052     -11.946789    
SHAKE stats (type/ave/delta/count) on step 7540000
Bond:   1   1         1.07961e-06     6906
Angle:  1   109.47    9.62313e-05     3453
   7540000   132.90779     -1616.2734      0             -1349.2153     -12.000576    
SHAKE stats (type/ave/delta/count) on step 7550000
Bond:   1   1         1.49964e-06     6906
Angle:  1   109.47    9.46636e-05     3453
   7550000   131.97883     -1607.3829      0             -1342.1913     -15.068686    
SHAKE stats (type/ave/delta/count) on step 7560000
Bond:   1   1         1.73669e-06     6906
Angle:  1   109.47    0.000120633     3453
   7560000   131.78057     -1611.9176      0             -1347.1245     -15.455163    
SHAKE stats (type/ave/delta/count) on step 7570000
Bond:   1   1         1.34271e-06     6906
Angle:  1   109.47    0.000104497     3453
   7570000   135.44389     -1615.7508      0             -1343.5968     -10.331967    
SHAKE stats (type/ave/delta/count) on step 7580000
Bond:   1   1         1.48366e-06     6906
Angle:  1   109.47    0.0001014       3453
   7580000   133.95923     -1614.2302      0             -1345.0594     -13.486205    
SHAKE stats (type/ave/delta/count) on step 7590000
Bond:   1   1         1.26807e-06     6906
Angle:  1   109.47    9.96624e-05     3453
   7590000   134.55761     -1619.676       0             -1349.3028     -8.6886271    
SHAKE stats (type/ave/delta/count) on step 7600000
Bond:   1   1         1.21448e-06     6906
Angle:  1   109.47    0.000106334     3453
   7600000   131.62916     -1608.0377      0             -1343.5488     -8.5094351    
SHAKE stats (type/ave/delta/count) on step 7610000
Bond:   1   1         1.15047e-06     6906
Angle:  1   109.47    9.81899e-05     3453
   7610000   132.23328     -1612.7357      0             -1347.0328     -10.040227    
SHAKE stats (type/ave/delta/count) on step 7620000
Bond:   1   1         1.6004e-06      6906
Angle:  1   109.47    0.00011707      3453
   7620000   133.95866     -1612.0241      0             -1342.8544     -8.8783885    
SHAKE stats (type/ave/delta/count) on step 7630000
Bond:   1   1         1.14573e-06     6906
Angle:  1   109.47    9.36474e-05     3453
   7630000   132.05596     -1612.4375      0             -1347.091       3.5608278    
SHAKE stats (type/ave/delta/count) on step 7640000
Bond:   1   1         1.32266e-06     6906
Angle:  1   109.47    9.11761e-05     3453
   7640000   132.86524     -1617.837       0             -1350.8643     -4.0847241    
SHAKE stats (type/ave/delta/count) on step 7650000
Bond:   1   1         1.62768e-06     6906
Angle:  1   109.47    0.000110784     3453
   7650000   133.38633     -1611.1337      0             -1343.114      -14.022587    
SHAKE stats (type/ave/delta/count) on step 7660000
Bond:   1   1         1.62989e-06     6906
Angle:  1   109.47    0.000104898     3453
   7660000   133.72706     -1619.7298      0             -1351.0254     -14.59302     
SHAKE stats (type/ave/delta/count) on step 7670000
Bond:   1   1         1.53777e-06     6906
Angle:  1   109.47    9.34945e-05     3453
   7670000   132.69475     -1615.413       0             -1348.7829     -12.360317    
SHAKE stats (type/ave/delta/count) on step 7680000
Bond:   1   1         1.26567e-06     6906
Angle:  1   109.47    9.4486e-05      3453
   7680000   134.92155     -1611.4005      0             -1340.296      -9.3581745    
SHAKE stats (type/ave/delta/count) on step 7690000
Bond:   1   1         1.36507e-06     6906
Angle:  1   109.47    0.00010145      3453
   7690000   133.73078     -1615.9464      0             -1347.2346     -16.758823    
SHAKE stats (type/ave/delta/count) on step 7700000
Bond:   1   1         1.50789e-06     6906
Angle:  1   109.47    9.76287e-05     3453
   7700000   133.52801     -1609.7299      0             -1341.4255     -11.786223    
SHAKE stats (type/ave/delta/count) on step 7710000
Bond:   1   1         1.11935e-06     6906
Angle:  1   109.47    9.76663e-05     3453
   7710000   131.62354     -1614.994       0             -1350.5164     -9.9714893    
SHAKE stats (type/ave/delta/count) on step 7720000
Bond:   1   1         1.27753e-06     6906
Angle:  1   109.47    9.76898e-05     3453
   7720000   132.93733     -1618.425       0             -1351.3075     -11.316468    
SHAKE stats (type/ave/delta/count) on step 7730000
Bond:   1   1         1.44585e-06     6906
Angle:  1   109.47    0.000100977     3453
   7730000   132.7313      -1609.2587      0             -1342.5552     -12.572087    
SHAKE stats (type/ave/delta/count) on step 7740000
Bond:   1   1         1.78648e-06     6906
Angle:  1   109.47    0.00011892      3453
   7740000   131.51007     -1613.9401      0             -1349.6904     -17.828339    
SHAKE stats (type/ave/delta/count) on step 7750000
Bond:   1   1         1.45208e-06     6906
Angle:  1   109.47    0.000130632     3453
   7750000   134.03914     -1607.1989      0             -1337.8675      1.1619454    
SHAKE stats (type/ave/delta/count) on step 7760000
Bond:   1   1         1.15658e-06     6906
Angle:  1   109.47    9.12965e-05     3453
   7760000   131.29128     -1611.3011      0             -1347.4911     -6.8959363    
SHAKE stats (type/ave/delta/count) on step 7770000
Bond:   1   1         1.37249e-06     6906
Angle:  1   109.47    9.61196e-05     3453
   7770000   132.80303     -1609.8682      0             -1343.0206     -7.995305     
SHAKE stats (type/ave/delta/count) on step 7780000
Bond:   1   1         1.58196e-06     6906
Angle:  1   109.47    0.000104504     3453
   7780000   133.32357     -1613.4076      0             -1345.5141     -11.33335     
SHAKE stats (type/ave/delta/count) on step 7790000
Bond:   1   1         1.12852e-06     6906
Angle:  1   109.47    9.11042e-05     3453
   7790000   132.91645     -1612.1851      0             -1345.1095      1.9461062    
SHAKE stats (type/ave/delta/count) on step 7800000
Bond:   1   1         1.14653e-06     6906
Angle:  1   109.47    0.000108904     3453
   7800000   134.89962     -1614.8887      0             -1343.8283     -17.919779    
SHAKE stats (type/ave/delta/count) on step 7810000
Bond:   1   1         1.38033e-06     6906
Angle:  1   109.47    8.87331e-05     3453
   7810000   132.94439     -1617.5045      0             -1350.3728     -15.858587    
SHAKE stats (type/ave/delta/count) on step 7820000
Bond:   1   1         1.42514e-06     6906
Angle:  1   109.47    9.96448e-05     3453
   7820000   131.55672     -1608.4063      0             -1344.063      -8.3508061    
SHAKE stats (type/ave/delta/count) on step 7830000
Bond:   1   1         1.37749e-06     6906
Angle:  1   109.47    9.87893e-05     3453
   7830000   132.71324     -1606.6009      0             -1339.9337     -6.0332606    
SHAKE stats (type/ave/delta/count) on step 7840000
Bond:   1   1         1.63226e-06     6906
Angle:  1   109.47    0.00013086      3453
   7840000   133.79537     -1612.7757      0             -1343.9341     -11.987033    
SHAKE stats (type/ave/delta/count) on step 7850000
Bond:   1   1         1.3143e-06      6906
Angle:  1   109.47    9.56476e-05     3453
   7850000   133.37318     -1609.7835      0             -1341.7903     -5.4399815    
SHAKE stats (type/ave/delta/count) on step 7860000
Bond:   1   1         1.31112e-06     6906
Angle:  1   109.47    8.96568e-05     3453
   7860000   135.27603     -1611.4714      0             -1339.6546     -7.0896577    
SHAKE stats (type/ave/delta/count) on step 7870000
Bond:   1   1         1.15299e-06     6906
Angle:  1   109.47    9.45453e-05     3453
   7870000   135.81999     -1614.1257      0             -1341.2159     -19.929333    
SHAKE stats (type/ave/delta/count) on step 7880000
Bond:   1   1         1.76278e-06     6906
Angle:  1   109.47    0.000148308     3453
   7880000   135.87569     -1609.0936      0             -1336.072      -12.493217    
SHAKE stats (type/ave/delta/count) on step 7890000
Bond:   1   1         1.19104e-06     6906
Angle:  1   109.47    0.000100868     3453
   7890000   132.61944     -1612.8772      0             -1346.3985     -16.60138     
SHAKE stats (type/ave/delta/count) on step 7900000
Bond:   1   1         1.33612e-06     6906
Angle:  1   109.47    9.62382e-05     3453
   7900000   134.41136     -1619.1432      0             -1349.0638      4.8134403    
SHAKE stats (type/ave/delta/count) on step 7910000
Bond:   1   1         1.29243e-06     6906
Angle:  1   109.47    9.82002e-05     3453
   7910000   133.44687     -1611.88        0             -1343.7387     -5.0770762    
SHAKE stats (type/ave/delta/count) on step 7920000
Bond:   1   1         1.67711e-06     6906
Angle:  1   109.47    0.00011331      3453
   7920000   135.03296     -1606.1722      0             -1334.8439      10.088922    
SHAKE stats (type/ave/delta/count) on step 7930000
Bond:   1   1         1.40085e-06     6906
Angle:  1   109.47    0.000118441     3453
   7930000   132.60429     -1605.8839      0             -1339.4356     -7.3676683    
SHAKE stats (type/ave/delta/count) on step 7940000
Bond:   1   1         1.19152e-06     6906
Angle:  1   109.47    9.76445e-05     3453
   7940000   135.01186     -1606.6715      0             -1335.3856     -14.868798    
SHAKE stats (type/ave/delta/count) on step 7950000
Bond:   1   1         1.3295e-06      6906
Angle:  1   109.47    0.000102147     3453
   7950000   135.26928     -1610.2786      0             -1338.4754     -14.357049    
SHAKE stats (type/ave/delta/count) on step 7960000
Bond:   1   1         1.59846e-06     6906
Angle:  1   109.47    0.000111572     3453
   7960000   132.18364     -1618.2215      0             -1352.6185     -10.022921    
SHAKE stats (type/ave/delta/count) on step 7970000
Bond:   1   1         1.23831e-06     6906
Angle:  1   109.47    9.19647e-05     3453
   7970000   133.99815     -1611.5853      0             -1342.3362     -19.035268    
SHAKE stats (type/ave/delta/count) on step 7980000
Bond:   1   1         1.19763e-06     6906
Angle:  1   109.47    0.000125131     3453
   7980000   132.57695     -1607.2439      0             -1340.8505     -3.2586712    
SHAKE stats (type/ave/delta/count) on step 7990000
Bond:   1   1         1.39212e-06     6906
Angle:  1   109.47    0.000112212     3453
   7990000   134.86842     -1613.9424      0             -1342.9447     -7.1623372    
SHAKE stats (type/ave/delta/count) on step 8000000
Bond:   1   1         1.45552e-06     6906
Angle:  1   109.47    9.33787e-05     3453
   8000000   131.58495     -1613.7295      0             -1349.3294     -5.7973212    
SHAKE stats (type/ave/delta/count) on step 8010000
Bond:   1   1         1.27699e-06     6906
Angle:  1   109.47    0.000108395     3453
   8010000   132.16391     -1611.0295      0             -1345.4661     -9.9186746    
SHAKE stats (type/ave/delta/count) on step 8020000
Bond:   1   1         1.26784e-06     6906
Angle:  1   109.47    9.87035e-05     3453
   8020000   132.54807     -1613.8057      0             -1347.4703     -12.709884    
SHAKE stats (type/ave/delta/count) on step 8030000
Bond:   1   1         1.25436e-06     6906
Angle:  1   109.47    0.000100376     3453
   8030000   134.67569     -1622.8617      0             -1352.2512     -0.27152926   
SHAKE stats (type/ave/delta/count) on step 8040000
Bond:   1   1         1.24802e-06     6906
Angle:  1   109.47    0.000101529     3453
   8040000   134.38542     -1619.205       0             -1349.1778     -18.963771    
SHAKE stats (type/ave/delta/count) on step 8050000
Bond:   1   1         1.36974e-06     6906
Angle:  1   109.47    0.000135769     3453
   8050000   136.7092      -1615.0726      0             -1340.3761     -7.3582048    
SHAKE stats (type/ave/delta/count) on step 8060000
Bond:   1   1         1.38863e-06     6906
Angle:  1   109.47    0.000106342     3453
   8060000   132.25436     -1606.5979      0             -1340.8528     -22.492609    
SHAKE stats (type/ave/delta/count) on step 8070000
Bond:   1   1         1.10273e-06     6906
Angle:  1   109.47    8.99279e-05     3453
   8070000   130.74417     -1618.9374      0             -1356.2267     -14.404128    
SHAKE stats (type/ave/delta/count) on step 8080000
Bond:   1   1         1.51963e-06     6906
Angle:  1   109.47    0.000101229     3453
   8080000   134.86629     -1614.582       0             -1343.5886      0.44308816   
SHAKE stats (type/ave/delta/count) on step 8090000
Bond:   1   1         1.63443e-06     6906
Angle:  1   109.47    0.00015261      3453
   8090000   134.3931      -1609.65        0             -1339.6074     -6.1812552    
SHAKE stats (type/ave/delta/count) on step 8100000
Bond:   1   1         1.20604e-06     6906
Angle:  1   109.47    0.00011797      3453
   8100000   133.2765      -1609.7875      0             -1341.9885     -7.8436254    
SHAKE stats (type/ave/delta/count) on step 8110000
Bond:   1   1         1.32063e-06     6906
Angle:  1   109.47    9.74199e-05     3453
   8110000   134.78054     -1614.2312      0             -1343.41       -7.6389205    
SHAKE stats (type/ave/delta/count) on step 8120000
Bond:   1   1         1.27062e-06     6906
Angle:  1   109.47    9.10865e-05     3453
   8120000   131.51604     -1610.9525      0             -1346.6909     -1.8281688    
SHAKE stats (type/ave/delta/count) on step 8130000
Bond:   1   1         1.22522e-06     6906
Angle:  1   109.47    0.000100922     3453
   8130000   134.0157      -1611.7677      0             -1342.4834     -11.598317    
SHAKE stats (type/ave/delta/count) on step 8140000
Bond:   1   1         1.37697e-06     6906
Angle:  1   109.47    9.84737e-05     3453
   8140000   131.89452     -1613.5932      0             -1348.5711     -13.13826     
SHAKE stats (type/ave/delta/count) on step 8150000
Bond:   1   1         1.32754e-06     6906
Angle:  1   109.47    9.26686e-05     3453
   8150000   135.26793     -1612.1895      0             -1340.389      -4.0869662    
SHAKE stats (type/ave/delta/count) on step 8160000
Bond:   1   1         1.79073e-06     6906
Angle:  1   109.47    0.00011287      3453
   8160000   131.60092     -1610.1817      0             -1345.7495     -11.868505    
SHAKE stats (type/ave/delta/count) on step 8170000
Bond:   1   1         1.23871e-06     6906
Angle:  1   109.47    9.64852e-05     3453
   8170000   131.89363     -1612.7937      0             -1347.7733     -10.83434     
SHAKE stats (type/ave/delta/count) on step 8180000
Bond:   1   1         1.11236e-06     6906
Angle:  1   109.47    9.55301e-05     3453
   8180000   134.16894     -1615.6195      0             -1346.0272     -12.514839    
SHAKE stats (type/ave/delta/count) on step 8190000
Bond:   1   1         1.32417e-06     6906
Angle:  1   109.47    0.000106191     3453
   8190000   134.60467     -1601.4954      0             -1331.0277     -32.522618    
SHAKE stats (type/ave/delta/count) on step 8200000
Bond:   1   1         1.18447e-06     6906
Angle:  1   109.47    0.000113298     3453
   8200000   133.65828     -1618.1919      0             -1349.6257     -16.874193    
SHAKE stats (type/ave/delta/count) on step 8210000
Bond:   1   1         1.42284e-06     6906
Angle:  1   109.47    0.000103694     3453
   8210000   134.14162     -1619.7338      0             -1350.1965     -20.167342    
SHAKE stats (type/ave/delta/count) on step 8220000
Bond:   1   1         1.18579e-06     6906
Angle:  1   109.47    9.24271e-05     3453
   8220000   134.1099      -1615.3088      0             -1345.8353     -1.7327       
SHAKE stats (type/ave/delta/count) on step 8230000
Bond:   1   1         1.72851e-06     6906
Angle:  1   109.47    0.000109931     3453
   8230000   134.39192     -1615.5241      0             -1345.4838     -14.86691     
SHAKE stats (type/ave/delta/count) on step 8240000
Bond:   1   1         1.15397e-06     6906
Angle:  1   109.47    9.72576e-05     3453
   8240000   132.29026     -1605.4726      0             -1339.6553     -11.219711    
SHAKE stats (type/ave/delta/count) on step 8250000
Bond:   1   1         1.24811e-06     6906
Angle:  1   109.47    0.000127079     3453
   8250000   133.38528     -1616.5426      0             -1348.525      -14.229796    
SHAKE stats (type/ave/delta/count) on step 8260000
Bond:   1   1         1.14299e-06     6906
Angle:  1   109.47    0.000102928     3453
   8260000   134.36085     -1614.314       0             -1344.3362     -14.647768    
SHAKE stats (type/ave/delta/count) on step 8270000
Bond:   1   1         1.20515e-06     6906
Angle:  1   109.47    0.000115408     3453
   8270000   132.87188     -1610.4637      0             -1343.4777     -20.337032    
SHAKE stats (type/ave/delta/count) on step 8280000
Bond:   1   1         1.27471e-06     6906
Angle:  1   109.47    9.45645e-05     3453
   8280000   131.98259     -1614.5661      0             -1349.367      -14.577446    
SHAKE stats (type/ave/delta/count) on step 8290000
Bond:   1   1         1.61236e-06     6906
Angle:  1   109.47    9.95924e-05     3453
   8290000   132.58669     -1611.0146      0             -1344.6017     -16.407873    
SHAKE stats (type/ave/delta/count) on step 8300000
Bond:   1   1         1.36295e-06     6906
Angle:  1   109.47    9.89615e-05     3453
   8300000   135.44296     -1605.8449      0             -1333.6928     -4.5197631    
SHAKE stats (type/ave/delta/count) on step 8310000
Bond:   1   1         1.10606e-06     6906
Angle:  1   109.47    9.58914e-05     3453
   8310000   134.10846     -1607.574       0             -1338.1033     -11.327074    
SHAKE stats (type/ave/delta/count) on step 8320000
Bond:   1   1         1.31024e-06     6906
Angle:  1   109.47    0.00012024      3453
   8320000   133.63697     -1612.2204      0             -1343.6971     -9.0256211    
SHAKE stats (type/ave/delta/count) on step 8330000
Bond:   1   1         1.1077e-06      6906
Angle:  1   109.47    0.00010259      3453
   8330000   133.37616     -1609.1319      0             -1341.1326     -18.114399    
SHAKE stats (type/ave/delta/count) on step 8340000
Bond:   1   1         1.33311e-06     6906
Angle:  1   109.47    9.74076e-05     3453
   8340000   132.86576     -1608.535       0             -1341.5614     -18.965731    
SHAKE stats (type/ave/delta/count) on step 8350000
Bond:   1   1         1.43833e-06     6906
Angle:  1   109.47    0.000106391     3453
   8350000   134.09005     -1618.9288      0             -1349.4951     -4.3589906    
SHAKE stats (type/ave/delta/count) on step 8360000
Bond:   1   1         1.29907e-06     6906
Angle:  1   109.47    0.000107451     3453
   8360000   135.28221     -1616.4432      0             -1344.614      -12.14312     
SHAKE stats (type/ave/delta/count) on step 8370000
Bond:   1   1         1.25494e-06     6906
Angle:  1   109.47    9.94182e-05     3453
   8370000   132.13251     -1611.9361      0             -1346.4358     -1.9702097    
SHAKE stats (type/ave/delta/count) on step 8380000
Bond:   1   1         1.50759e-06     6906
Angle:  1   109.47    0.000117528     3453
   8380000   132.46932     -1609.1843      0             -1343.0072     -7.2989694    
SHAKE stats (type/ave/delta/count) on step 8390000
Bond:   1   1         1.21826e-06     6906
Angle:  1   109.47    9.80078e-05     3453
   8390000   133.93037     -1610.2017      0             -1341.0889      6.7087295    
SHAKE stats (type/ave/delta/count) on step 8400000
Bond:   1   1         1.6231e-06      6906
Angle:  1   109.47    0.000120824     3453
   8400000   134.718       -1607.2415      0             -1336.546      -18.042055    
SHAKE stats (type/ave/delta/count) on step 8410000
Bond:   1   1         1.2376e-06      6906
Angle:  1   109.47    0.000106466     3453
   8410000   134.00889     -1612.5953      0             -1343.3247     -25.756424    
SHAKE stats (type/ave/delta/count) on step 8420000
Bond:   1   1         1.26268e-06     6906
Angle:  1   109.47    9.02044e-05     3453
   8420000   131.38975     -1612.5299      0             -1348.5221     -10.817458    
SHAKE stats (type/ave/delta/count) on step 8430000
Bond:   1   1         1.12165e-06     6906
Angle:  1   109.47    9.46209e-05     3453
   8430000   133.0731      -1614.3716      0             -1346.9813     -17.576776    
SHAKE stats (type/ave/delta/count) on step 8440000
Bond:   1   1         1.13184e-06     6906
Angle:  1   109.47    9.09837e-05     3453
   8440000   134.55692     -1617.9023      0             -1347.5305     -13.522889    
SHAKE stats (type/ave/delta/count) on step 8450000
Bond:   1   1         1.32524e-06     6906
Angle:  1   109.47    0.000113295     3453
   8450000   133.45067     -1610.8925      0             -1342.7435     -17.714384    
SHAKE stats (type/ave/delta/count) on step 8460000
Bond:   1   1         1.18686e-06     6906
Angle:  1   109.47    9.47665e-05     3453
   8460000   135.4462      -1608.3985      0             -1336.2398      7.9702449    
SHAKE stats (type/ave/delta/count) on step 8470000
Bond:   1   1         1.13294e-06     6906
Angle:  1   109.47    0.000111292     3453
   8470000   132.1442      -1607.0297      0             -1341.5059     -8.231978     
SHAKE stats (type/ave/delta/count) on step 8480000
Bond:   1   1         1.16917e-06     6906
Angle:  1   109.47    9.28185e-05     3453
   8480000   132.2096      -1607.1679      0             -1341.5127     -0.34724407   
SHAKE stats (type/ave/delta/count) on step 8490000
Bond:   1   1         1.24267e-06     6906
Angle:  1   109.47    0.000105285     3453
   8490000   134.69404     -1614.1798      0             -1343.5325     -6.8287191    
SHAKE stats (type/ave/delta/count) on step 8500000
Bond:   1   1         1.35422e-06     6906
Angle:  1   109.47    0.00011865      3453
   8500000   133.83177     -1618.0754      0             -1349.1607     -1.4997058    
SHAKE stats (type/ave/delta/count) on step 8510000
Bond:   1   1         1.1129e-06      6906
Angle:  1   109.47    9.30662e-05     3453
   8510000   132.79392     -1612.0496      0             -1345.2203     -9.3495286    
SHAKE stats (type/ave/delta/count) on step 8520000
Bond:   1   1         1.56777e-06     6906
Angle:  1   109.47    9.96746e-05     3453
   8520000   133.74943     -1619.8654      0             -1351.1161     -13.545433    
SHAKE stats (type/ave/delta/count) on step 8530000
Bond:   1   1         1.65063e-06     6906
Angle:  1   109.47    0.000127413     3453
   8530000   133.31822     -1611.3303      0             -1343.4475     -13.40342     
SHAKE stats (type/ave/delta/count) on step 8540000
Bond:   1   1         1.3006e-06      6906
Angle:  1   109.47    9.96299e-05     3453
   8540000   132.0764      -1611.4317      0             -1346.0441     -3.277563     
SHAKE stats (type/ave/delta/count) on step 8550000
Bond:   1   1         1.54219e-06     6906
Angle:  1   109.47    0.000107398     3453
   8550000   131.93382     -1615.5642      0             -1350.4631     -9.9329713    
SHAKE stats (type/ave/delta/count) on step 8560000
Bond:   1   1         1.19829e-06     6906
Angle:  1   109.47    9.99261e-05     3453
   8560000   133.3059      -1613.0894      0             -1345.2313     -11.284099    
SHAKE stats (type/ave/delta/count) on step 8570000
Bond:   1   1         1.17941e-06     6906
Angle:  1   109.47    9.33052e-05     3453
   8570000   130.5023      -1608.2133      0             -1345.9887     -2.7208817    
SHAKE stats (type/ave/delta/count) on step 8580000
Bond:   1   1         1.39256e-06     6906
Angle:  1   109.47    0.000109085     3453
   8580000   132.1509      -1613.155       0             -1347.6177     -16.57059     
SHAKE stats (type/ave/delta/count) on step 8590000
Bond:   1   1         1.07228e-06     6906
Angle:  1   109.47    0.000105384     3453
   8590000   131.25394     -1609.5358      0             -1345.8009     -7.2899016    
SHAKE stats (type/ave/delta/count) on step 8600000
Bond:   1   1         1.71042e-06     6906
Angle:  1   109.47    0.000146194     3453
   8600000   134.17165     -1607.435       0             -1337.8373      4.2034183    
SHAKE stats (type/ave/delta/count) on step 8610000
Bond:   1   1         1.54947e-06     6906
Angle:  1   109.47    0.000102426     3453
   8610000   133.65414     -1610.4454      0             -1341.8876     -0.42622835   
SHAKE stats (type/ave/delta/count) on step 8620000
Bond:   1   1         1.29608e-06     6906
Angle:  1   109.47    0.000104064     3453
   8620000   132.19805     -1611.807       0             -1346.175      -4.0579992    
SHAKE stats (type/ave/delta/count) on step 8630000
Bond:   1   1         1.17568e-06     6906
Angle:  1   109.47    9.34185e-05     3453
   8630000   133.46311     -1613.502       0             -1345.3281     -3.3442464    
SHAKE stats (type/ave/delta/count) on step 8640000
Bond:   1   1         1.34037e-06     6906
Angle:  1   109.47    0.000129806     3453
   8640000   132.63124     -1616.6799      0             -1350.1774     -12.337897    
SHAKE stats (type/ave/delta/count) on step 8650000
Bond:   1   1         1.33728e-06     6906
Angle:  1   109.47    9.22819e-05     3453
   8650000   134.30132     -1607.105       0             -1337.2468     -19.779567    
SHAKE stats (type/ave/delta/count) on step 8660000
Bond:   1   1         1.49076e-06     6906
Angle:  1   109.47    0.000116164     3453
   8660000   131.56136     -1607.855       0             -1343.5023     -25.274038    
SHAKE stats (type/ave/delta/count) on step 8670000
Bond:   1   1         1.44425e-06     6906
Angle:  1   109.47    0.0001098       3453
   8670000   133.35828     -1605.6017      0             -1337.6384      0.43585571   
SHAKE stats (type/ave/delta/count) on step 8680000
Bond:   1   1         1.20266e-06     6906
Angle:  1   109.47    0.000108806     3453
   8680000   133.19071     -1612.0797      0             -1344.4531     -15.617287    
SHAKE stats (type/ave/delta/count) on step 8690000
Bond:   1   1         1.30889e-06     6906
Angle:  1   109.47    0.000103924     3453
   8690000   134.67861     -1609.136       0             -1338.5197     -2.2208282    
SHAKE stats (type/ave/delta/count) on step 8700000
Bond:   1   1         1.23698e-06     6906
Angle:  1   109.47    9.05801e-05     3453
   8700000   135.27346     -1613.58        0             -1341.7684     -5.757044     
SHAKE stats (type/ave/delta/count) on step 8710000
Bond:   1   1         1.24297e-06     6906
Angle:  1   109.47    0.00010216      3453
   8710000   133.23109     -1612.1764      0             -1344.4687     -11.034278    
SHAKE stats (type/ave/delta/count) on step 8720000
Bond:   1   1         1.41401e-06     6906
Angle:  1   109.47    9.84215e-05     3453
   8720000   132.92945     -1616.8711      0             -1349.7694     -1.1405503    
SHAKE stats (type/ave/delta/count) on step 8730000
Bond:   1   1         1.26954e-06     6906
Angle:  1   109.47    0.000104459     3453
   8730000   131.92008     -1608.3688      0             -1343.2953     -13.979541    
SHAKE stats (type/ave/delta/count) on step 8740000
Bond:   1   1         1.2586e-06      6906
Angle:  1   109.47    0.000100922     3453
   8740000   132.549       -1607.7457      0             -1341.4085     -6.1737576    
SHAKE stats (type/ave/delta/count) on step 8750000
Bond:   1   1         1.1737e-06      6906
Angle:  1   109.47    0.000100216     3453
   8750000   133.87226     -1613.4919      0             -1344.4958     -2.2716961    
SHAKE stats (type/ave/delta/count) on step 8760000
Bond:   1   1         1.29583e-06     6906
Angle:  1   109.47    9.4283e-05      3453
   8760000   133.32606     -1616.087       0             -1348.1884     -9.9490529    
SHAKE stats (type/ave/delta/count) on step 8770000
Bond:   1   1         1.35443e-06     6906
Angle:  1   109.47    9.7259e-05      3453
   8770000   132.08642     -1614.2486      0             -1348.8409     -9.1972406    
SHAKE stats (type/ave/delta/count) on step 8780000
Bond:   1   1         1.15902e-06     6906
Angle:  1   109.47    0.000102336     3453
   8780000   129.66829     -1609.4107      0             -1348.8619     -15.259525    
SHAKE stats (type/ave/delta/count) on step 8790000
Bond:   1   1         1.28246e-06     6906
Angle:  1   109.47    0.000113601     3453
   8790000   131.43267     -1618.1583      0             -1354.0642     -19.251732    
SHAKE stats (type/ave/delta/count) on step 8800000
Bond:   1   1         1.17821e-06     6906
Angle:  1   109.47    0.000100827     3453
   8800000   132.68814     -1611.2634      0             -1344.6466     -5.2840026    
SHAKE stats (type/ave/delta/count) on step 8810000
Bond:   1   1         1.31288e-06     6906
Angle:  1   109.47    0.000103344     3453
   8810000   131.71914     -1619.0474      0             -1354.3777     -5.3942578    
SHAKE stats (type/ave/delta/count) on step 8820000
Bond:   1   1         1.26099e-06     6906
Angle:  1   109.47    0.000119326     3453
   8820000   132.46951     -1610.3839      0             -1344.2064     -5.4702977    
SHAKE stats (type/ave/delta/count) on step 8830000
Bond:   1   1         1.2349e-06      6906
Angle:  1   109.47    9.49614e-05     3453
   8830000   133.34465     -1610.3064      0             -1342.3705     -17.046497    
SHAKE stats (type/ave/delta/count) on step 8840000
Bond:   1   1         1.19646e-06     6906
Angle:  1   109.47    0.000102995     3453
   8840000   132.56999     -1609.6525      0             -1343.2732     -16.69548     
SHAKE stats (type/ave/delta/count) on step 8850000
Bond:   1   1         1.19085e-06     6906
Angle:  1   109.47    9.2553e-05      3453
   8850000   131.1163      -1609.0742      0             -1345.6158     -11.850153    
SHAKE stats (type/ave/delta/count) on step 8860000
Bond:   1   1         1.2349e-06      6906
Angle:  1   109.47    9.49406e-05     3453
   8860000   134.80097     -1614.7541      0             -1343.8919     -8.7715773    
SHAKE stats (type/ave/delta/count) on step 8870000
Bond:   1   1         1.47149e-06     6906
Angle:  1   109.47    0.000111507     3453
   8870000   131.58818     -1618.1982      0             -1353.7916     -7.9322016    
SHAKE stats (type/ave/delta/count) on step 8880000
Bond:   1   1         1.74125e-06     6906
Angle:  1   109.47    0.000131916     3453
   8880000   131.77602     -1614.6272      0             -1349.8432     -11.716952    
SHAKE stats (type/ave/delta/count) on step 8890000
Bond:   1   1         1.33964e-06     6906
Angle:  1   109.47    9.10106e-05     3453
   8890000   136.60919     -1619.6833      0             -1345.1878     -7.9949728    
SHAKE stats (type/ave/delta/count) on step 8900000
Bond:   1   1         1.1495e-06      6906
Angle:  1   109.47    0.000104017     3453
   8900000   132.24969     -1605.0861      0             -1339.3503     -11.51165     
SHAKE stats (type/ave/delta/count) on step 8910000
Bond:   1   1         1.27206e-06     6906
Angle:  1   109.47    0.000102405     3453
   8910000   133.67943     -1611.8526      0             -1343.244      -0.89637146   
SHAKE stats (type/ave/delta/count) on step 8920000
Bond:   1   1         1.42674e-06     6906
Angle:  1   109.47    9.04697e-05     3453
   8920000   130.70877     -1613.9361      0             -1351.2966     -5.0676548    
SHAKE stats (type/ave/delta/count) on step 8930000
Bond:   1   1         1.39426e-06     6906
Angle:  1   109.47    9.73496e-05     3453
   8930000   134.28962     -1603.6655      0             -1333.8308     -9.2471229    
SHAKE stats (type/ave/delta/count) on step 8940000
Bond:   1   1         1.34423e-06     6906
Angle:  1   109.47    9.12306e-05     3453
   8940000   133.37468     -1612.1501      0             -1344.1539      9.2943152    
SHAKE stats (type/ave/delta/count) on step 8950000
Bond:   1   1         1.31156e-06     6906
Angle:  1   109.47    9.55011e-05     3453
   8950000   134.47921     -1616.0603      0             -1345.8447     -19.651031    
SHAKE stats (type/ave/delta/count) on step 8960000
Bond:   1   1         1.28539e-06     6906
Angle:  1   109.47    0.000119345     3453
   8960000   132.40228     -1604.4604      0             -1338.4181     -9.471974     
SHAKE stats (type/ave/delta/count) on step 8970000
Bond:   1   1         1.39321e-06     6906
Angle:  1   109.47    9.98933e-05     3453
   8970000   134.85619     -1611.5582      0             -1340.585       0.22337106   
SHAKE stats (type/ave/delta/count) on step 8980000
Bond:   1   1         1.189e-06       6906
Angle:  1   109.47    0.000101258     3453
   8980000   132.78097     -1618.6627      0             -1351.8594      2.1131405    
SHAKE stats (type/ave/delta/count) on step 8990000
Bond:   1   1         1.36749e-06     6906
Angle:  1   109.47    9.50203e-05     3453
   8990000   132.10157     -1607.6466      0             -1342.2084     -8.6825729    
SHAKE stats (type/ave/delta/count) on step 9000000
Bond:   1   1         1.2618e-06      6906
Angle:  1   109.47    8.99878e-05     3453
   9000000   129.56046     -1610.9572      0             -1350.625      -18.489241    
SHAKE stats (type/ave/delta/count) on step 9010000
Bond:   1   1         1.30121e-06     6906
Angle:  1   109.47    9.33949e-05     3453
   9010000   133.00147     -1606.9358      0             -1339.6894     -11.027449    
SHAKE stats (type/ave/delta/count) on step 9020000
Bond:   1   1         1.22539e-06     6906
Angle:  1   109.47    0.000119245     3453
   9020000   132.43245     -1607.2717      0             -1341.1687     -3.5262728    
SHAKE stats (type/ave/delta/count) on step 9030000
Bond:   1   1         1.35891e-06     6906
Angle:  1   109.47    0.000107381     3453
   9030000   131.09033     -1620.9673      0             -1357.5611     -22.217292    
SHAKE stats (type/ave/delta/count) on step 9040000
Bond:   1   1         1.19088e-06     6906
Angle:  1   109.47    9.1049e-05      3453
   9040000   132.59802     -1608.2676      0             -1341.8319     -14.262933    
SHAKE stats (type/ave/delta/count) on step 9050000
Bond:   1   1         1.13508e-06     6906
Angle:  1   109.47    9.39953e-05     3453
   9050000   134.28132     -1610.5186      0             -1340.7005     -2.924806     
SHAKE stats (type/ave/delta/count) on step 9060000
Bond:   1   1         1.28237e-06     6906
Angle:  1   109.47    9.43202e-05     3453
   9060000   130.93378     -1610.6405      0             -1347.5488     -4.727815     
SHAKE stats (type/ave/delta/count) on step 9070000
Bond:   1   1         1.75752e-06     6906
Angle:  1   109.47    0.000117835     3453
   9070000   135.23683     -1612.2444      0             -1340.5064     -4.6045957    
SHAKE stats (type/ave/delta/count) on step 9080000
Bond:   1   1         1.18284e-06     6906
Angle:  1   109.47    0.000106372     3453
   9080000   132.5191      -1609.8874      0             -1343.6103     -17.007331    
SHAKE stats (type/ave/delta/count) on step 9090000
Bond:   1   1         1.35706e-06     6906
Angle:  1   109.47    0.000113978     3453
   9090000   132.7039      -1615.1048      0             -1348.4564     -8.2261977    
SHAKE stats (type/ave/delta/count) on step 9100000
Bond:   1   1         1.80485e-06     6906
Angle:  1   109.47    0.000159313     3453
   9100000   135.0251      -1613.0639      0             -1341.7514     -5.4229877    
SHAKE stats (type/ave/delta/count) on step 9110000
Bond:   1   1         1.29679e-06     6906
Angle:  1   109.47    0.000142802     3453
   9110000   133.88107     -1607.3191      0             -1338.3053     -4.7980596    
SHAKE stats (type/ave/delta/count) on step 9120000
Bond:   1   1         1.41195e-06     6906
Angle:  1   109.47    0.000103161     3453
   9120000   132.88357     -1611.5022      0             -1344.4927     -0.0078718013 
SHAKE stats (type/ave/delta/count) on step 9130000
Bond:   1   1         1.41426e-06     6906
Angle:  1   109.47    0.000103971     3453
   9130000   136.2124      -1605.8055      0             -1332.1073     -7.3529073    
SHAKE stats (type/ave/delta/count) on step 9140000
Bond:   1   1         1.25427e-06     6906
Angle:  1   109.47    9.67549e-05     3453
   9140000   134.44451     -1606.9936      0             -1336.8477     -0.35206196   
SHAKE stats (type/ave/delta/count) on step 9150000
Bond:   1   1         1.42449e-06     6906
Angle:  1   109.47    0.000110011     3453
   9150000   133.53058     -1602.062       0             -1333.7524     -6.7653625    
SHAKE stats (type/ave/delta/count) on step 9160000
Bond:   1   1         1.09702e-06     6906
Angle:  1   109.47    0.000100014     3453
   9160000   132.88173     -1614.8255      0             -1347.8197     -6.4953289    
SHAKE stats (type/ave/delta/count) on step 9170000
Bond:   1   1         1.49214e-06     6906
Angle:  1   109.47    9.79896e-05     3453
   9170000   133.88565     -1611.7642      0             -1342.7412     -3.3854139    
SHAKE stats (type/ave/delta/count) on step 9180000
Bond:   1   1         1.38763e-06     6906
Angle:  1   109.47    0.00010287      3453
   9180000   134.78408     -1606.6489      0             -1335.8207     -3.8687387    
SHAKE stats (type/ave/delta/count) on step 9190000
Bond:   1   1         1.49775e-06     6906
Angle:  1   109.47    0.00010552      3453
   9190000   132.04911     -1608.9978      0             -1343.6651     -13.295976    
SHAKE stats (type/ave/delta/count) on step 9200000
Bond:   1   1         1.09722e-06     6906
Angle:  1   109.47    0.000106359     3453
   9200000   133.90712     -1610.4746      0             -1341.4084     -11.088371    
SHAKE stats (type/ave/delta/count) on step 9210000
Bond:   1   1         1.53911e-06     6906
Angle:  1   109.47    0.000105222     3453
   9210000   133.20131     -1617.2449      0             -1349.597       3.5695704    
SHAKE stats (type/ave/delta/count) on step 9220000
Bond:   1   1         1.93799e-06     6906
Angle:  1   109.47    0.000150222     3453
   9220000   135.55038     -1609.8733      0             -1337.5053     -3.9391505    
SHAKE stats (type/ave/delta/count) on step 9230000
Bond:   1   1         1.26272e-06     6906
Angle:  1   109.47    9.11178e-05     3453
   9230000   134.86926     -1613.9578      0             -1342.9584     -12.632352    
SHAKE stats (type/ave/delta/count) on step 9240000
Bond:   1   1         1.32536e-06     6906
Angle:  1   109.47    0.00010954      3453
   9240000   134.54066     -1617.4423      0             -1347.1032      1.2085534    
SHAKE stats (type/ave/delta/count) on step 9250000
Bond:   1   1         1.19196e-06     6906
Angle:  1   109.47    0.000100211     3453
   9250000   132.19375     -1612.8985      0             -1347.2751     -12.143594    
SHAKE stats (type/ave/delta/count) on step 9260000
Bond:   1   1         1.3199e-06      6906
Angle:  1   109.47    9.55847e-05     3453
   9260000   134.6623      -1606.859       0             -1336.2755     -6.0781607    
SHAKE stats (type/ave/delta/count) on step 9270000
Bond:   1   1         1.65715e-06     6906
Angle:  1   109.47    0.000106313     3453
   9270000   133.49757     -1608.6028      0             -1340.3596     -13.454654    
SHAKE stats (type/ave/delta/count) on step 9280000
Bond:   1   1         1.22056e-06     6906
Angle:  1   109.47    9.49988e-05     3453
   9280000   133.08303     -1612.8389      0             -1345.4287     -15.450378    
SHAKE stats (type/ave/delta/count) on step 9290000
Bond:   1   1         1.27616e-06     6906
Angle:  1   109.47    0.000113586     3453
   9290000   134.46337     -1615.9243      0             -1345.7405     -15.544958    
SHAKE stats (type/ave/delta/count) on step 9300000
Bond:   1   1         1.39905e-06     6906
Angle:  1   109.47    0.00011541      3453
   9300000   133.63157     -1613.4523      0             -1344.9399     -13.518225    
SHAKE stats (type/ave/delta/count) on step 9310000
Bond:   1   1         1.22337e-06     6906
Angle:  1   109.47    9.2852e-05      3453
   9310000   134.73753     -1604.3452      0             -1333.6105     -16.121751    
SHAKE stats (type/ave/delta/count) on step 9320000
Bond:   1   1         1.32825e-06     6906
Angle:  1   109.47    9.74352e-05     3453
   9320000   132.46551     -1613.6625      0             -1347.493      -8.6829231    
SHAKE stats (type/ave/delta/count) on step 9330000
Bond:   1   1         1.24305e-06     6906
Angle:  1   109.47    0.000103919     3453
   9330000   133.71228     -1609.214       0             -1340.5393     -24.854087    
SHAKE stats (type/ave/delta/count) on step 9340000
Bond:   1   1         1.52385e-06     6906
Angle:  1   109.47    9.49875e-05     3453
   9340000   133.27899     -1616.57        0             -1348.766      -4.6665513    
SHAKE stats (type/ave/delta/count) on step 9350000
Bond:   1   1         1.31518e-06     6906
Angle:  1   109.47    0.0001121       3453
   9350000   131.5258      -1608.1438      0             -1343.8625     -10.706388    
SHAKE stats (type/ave/delta/count) on step 9360000
Bond:   1   1         1.1855e-06      6906
Angle:  1   109.47    0.000101106     3453
   9360000   134.25642     -1612.5161      0             -1342.7481     -26.384337    
SHAKE stats (type/ave/delta/count) on step 9370000
Bond:   1   1         1.54329e-06     6906
Angle:  1   109.47    0.000102111     3453
   9370000   131.57922     -1615.3905      0             -1351.0019      0.9016772    
SHAKE stats (type/ave/delta/count) on step 9380000
Bond:   1   1         1.27651e-06     6906
Angle:  1   109.47    9.166e-05       3453
   9380000   133.03968     -1616.3401      0             -1349.017      -9.0413402    
SHAKE stats (type/ave/delta/count) on step 9390000
Bond:   1   1         1.30993e-06     6906
Angle:  1   109.47    0.000103165     3453
   9390000   132.48859     -1610.8618      0             -1344.646      -10.274849    
SHAKE stats (type/ave/delta/count) on step 9400000
Bond:   1   1         1.2331e-06      6906
Angle:  1   109.47    0.000103293     3453
   9400000   134.92358     -1610.7774      0             -1339.6689     -22.633683    
SHAKE stats (type/ave/delta/count) on step 9410000
Bond:   1   1         1.11956e-06     6906
Angle:  1   109.47    9.73233e-05     3453
   9410000   134.12663     -1614.7221      0             -1345.2149     -7.6421761    
SHAKE stats (type/ave/delta/count) on step 9420000
Bond:   1   1         1.22626e-06     6906
Angle:  1   109.47    8.46531e-05     3453
   9420000   133.78772     -1610.9059      0             -1342.0797     -3.207333     
SHAKE stats (type/ave/delta/count) on step 9430000
Bond:   1   1         1.307e-06       6906
Angle:  1   109.47    0.00010051      3453
   9430000   134.44044     -1613.25        0             -1343.1122     -8.8392789    
SHAKE stats (type/ave/delta/count) on step 9440000
Bond:   1   1         1.17316e-06     6906
Angle:  1   109.47    9.24035e-05     3453
   9440000   132.89674     -1613.7132      0             -1346.6773     -6.8663098    
SHAKE stats (type/ave/delta/count) on step 9450000
Bond:   1   1         1.26905e-06     6906
Angle:  1   109.47    0.000105585     3453
   9450000   133.22334     -1616.0206      0             -1348.3284      2.9378728    
SHAKE stats (type/ave/delta/count) on step 9460000
Bond:   1   1         1.37376e-06     6906
Angle:  1   109.47    9.58214e-05     3453
   9460000   133.5357      -1609.2938      0             -1340.974      -8.2538604    
SHAKE stats (type/ave/delta/count) on step 9470000
Bond:   1   1         1.40652e-06     6906
Angle:  1   109.47    9.31869e-05     3453
   9470000   134.21952     -1607.7202      0             -1338.0263     -3.2651516    
SHAKE stats (type/ave/delta/count) on step 9480000
Bond:   1   1         1.22772e-06     6906
Angle:  1   109.47    9.8148e-05      3453
   9480000   133.28436     -1608.2687      0             -1340.4539     -4.6851539    
SHAKE stats (type/ave/delta/count) on step 9490000
Bond:   1   1         1.35121e-06     6906
Angle:  1   109.47    0.000100003     3453
   9490000   135.75919     -1612.0947      0             -1339.3071     -4.998436     
SHAKE stats (type/ave/delta/count) on step 9500000
Bond:   1   1         1.63614e-06     6906
Angle:  1   109.47    0.000106331     3453
   9500000   132.97079     -1608.775       0             -1341.5903     -11.47495     
SHAKE stats (type/ave/delta/count) on step 9510000
Bond:   1   1         1.28129e-06     6906
Angle:  1   109.47    0.000104671     3453
   9510000   134.54696     -1620.2728      0             -1349.921      -8.3886861    
SHAKE stats (type/ave/delta/count) on step 9520000
Bond:   1   1         1.65985e-06     6906
Angle:  1   109.47    0.000108719     3453
   9520000   133.76842     -1615.4307      0             -1346.6433     -18.036713    
SHAKE stats (type/ave/delta/count) on step 9530000
Bond:   1   1         1.56264e-06     6906
Angle:  1   109.47    0.000110927     3453
   9530000   134.82956     -1615.543       0             -1344.6233      3.2129468    
SHAKE stats (type/ave/delta/count) on step 9540000
Bond:   1   1         1.14952e-06     6906
Angle:  1   109.47    9.36882e-05     3453
   9540000   136.14339     -1605.6444      0             -1332.0848     -2.9757523    
SHAKE stats (type/ave/delta/count) on step 9550000
Bond:   1   1         1.21405e-06     6906
Angle:  1   109.47    0.000104885     3453
   9550000   135.88275     -1605.9403      0             -1332.9045      0.18526311   
SHAKE stats (type/ave/delta/count) on step 9560000
Bond:   1   1         1.32828e-06     6906
Angle:  1   109.47    9.12283e-05     3453
   9560000   134.68709     -1619.7731      0             -1349.1397     -1.3215187    
SHAKE stats (type/ave/delta/count) on step 9570000
Bond:   1   1         1.28078e-06     6906
Angle:  1   109.47    8.95718e-05     3453
   9570000   133.13558     -1607.8833      0             -1340.3675     -16.585552    
SHAKE stats (type/ave/delta/count) on step 9580000
Bond:   1   1         1.15044e-06     6906
Angle:  1   109.47    9.42986e-05     3453
   9580000   131.02561     -1618.6959      0             -1355.4197     -8.6671507    
SHAKE stats (type/ave/delta/count) on step 9590000
Bond:   1   1         1.61136e-06     6906
Angle:  1   109.47    0.000124377     3453
   9590000   132.01346     -1603.2261      0             -1337.965      -9.6926487    
SHAKE stats (type/ave/delta/count) on step 9600000
Bond:   1   1         1.31654e-06     6906
Angle:  1   109.47    0.000107778     3453
   9600000   135.27806     -1617.6596      0             -1345.8387     -9.7445951    
SHAKE stats (type/ave/delta/count) on step 9610000
Bond:   1   1         1.33649e-06     6906
Angle:  1   109.47    9.69611e-05     3453
   9610000   136.12288     -1612.7681      0             -1339.2497     -4.2688766    
SHAKE stats (type/ave/delta/count) on step 9620000
Bond:   1   1         1.23696e-06     6906
Angle:  1   109.47    8.84477e-05     3453
   9620000   132.77088     -1620.1019      0             -1353.3189     -6.1496304    
SHAKE stats (type/ave/delta/count) on step 9630000
Bond:   1   1         1.42784e-06     6906
Angle:  1   109.47    0.000100929     3453
   9630000   132.29465     -1613.7421      0             -1347.916      -0.53298294   
SHAKE stats (type/ave/delta/count) on step 9640000
Bond:   1   1         1.09922e-06     6906
Angle:  1   109.47    9.77794e-05     3453
   9640000   131.08093     -1606.3187      0             -1342.9314     -21.717892    
SHAKE stats (type/ave/delta/count) on step 9650000
Bond:   1   1         1.7597e-06      6906
Angle:  1   109.47    0.000115604     3453
   9650000   130.10666     -1613.5611      0             -1352.1314     -5.2106708    
SHAKE stats (type/ave/delta/count) on step 9660000
Bond:   1   1         1.32949e-06     6906
Angle:  1   109.47    9.33911e-05     3453
   9660000   134.03957     -1622.8443      0             -1353.5121     -10.462598    
SHAKE stats (type/ave/delta/count) on step 9670000
Bond:   1   1         1.22465e-06     6906
Angle:  1   109.47    9.71997e-05     3453
   9670000   134.25891     -1614.1296      0             -1344.3566     -4.742337     
SHAKE stats (type/ave/delta/count) on step 9680000
Bond:   1   1         1.18673e-06     6906
Angle:  1   109.47    9.69192e-05     3453
   9680000   132.94381     -1616.7754      0             -1349.6449     -11.379415    
SHAKE stats (type/ave/delta/count) on step 9690000
Bond:   1   1         1.37319e-06     6906
Angle:  1   109.47    0.000101203     3453
   9690000   132.56687     -1609.6264      0             -1343.2533     -5.0522152    
SHAKE stats (type/ave/delta/count) on step 9700000
Bond:   1   1         1.31676e-06     6906
Angle:  1   109.47    9.61606e-05     3453
   9700000   132.56089     -1616.0169      0             -1349.6558     -13.081869    
SHAKE stats (type/ave/delta/count) on step 9710000
Bond:   1   1         1.09625e-06     6906
Angle:  1   109.47    9.25763e-05     3453
   9710000   133.59873     -1609.1252      0             -1340.6787     -9.499564     
SHAKE stats (type/ave/delta/count) on step 9720000
Bond:   1   1         1.0778e-06      6906
Angle:  1   109.47    9.72341e-05     3453
   9720000   132.8033      -1615.6839      0             -1348.8357     -4.0120204    
SHAKE stats (type/ave/delta/count) on step 9730000
Bond:   1   1         1.14507e-06     6906
Angle:  1   109.47    9.8011e-05      3453
   9730000   133.76004     -1608.1298      0             -1339.3592     -8.4621584    
SHAKE stats (type/ave/delta/count) on step 9740000
Bond:   1   1         1.66732e-06     6906
Angle:  1   109.47    0.000100121     3453
   9740000   133.10044     -1612.6917      0             -1345.2464     -16.378296    
SHAKE stats (type/ave/delta/count) on step 9750000
Bond:   1   1         1.24561e-06     6906
Angle:  1   109.47    0.000103262     3453
   9750000   133.12105     -1611.2446      0             -1343.7579     -6.290254     
SHAKE stats (type/ave/delta/count) on step 9760000
Bond:   1   1         1.41216e-06     6906
Angle:  1   109.47    8.91963e-05     3453
   9760000   134.78872     -1613.8739      0             -1343.0363     -9.9815409    
SHAKE stats (type/ave/delta/count) on step 9770000
Bond:   1   1         1.29333e-06     6906
Angle:  1   109.47    0.000109024     3453
   9770000   133.2634      -1606.4994      0             -1338.7267     -6.175759     
SHAKE stats (type/ave/delta/count) on step 9780000
Bond:   1   1         1.16559e-06     6906
Angle:  1   109.47    9.77873e-05     3453
   9780000   133.46769     -1619.0619      0             -1350.8788      1.9136341    
SHAKE stats (type/ave/delta/count) on step 9790000
Bond:   1   1         1.24807e-06     6906
Angle:  1   109.47    9.5883e-05      3453
   9790000   133.19572     -1614.5672      0             -1346.9305     -4.4714229    
SHAKE stats (type/ave/delta/count) on step 9800000
Bond:   1   1         1.2071e-06      6906
Angle:  1   109.47    9.42724e-05     3453
   9800000   130.99659     -1609.6608      0             -1346.4429     -7.7421081    
SHAKE stats (type/ave/delta/count) on step 9810000
Bond:   1   1         1.56294e-06     6906
Angle:  1   109.47    0.000131699     3453
   9810000   133.66844     -1613.2754      0             -1344.6888      1.0821981    
SHAKE stats (type/ave/delta/count) on step 9820000
Bond:   1   1         1.39031e-06     6906
Angle:  1   109.47    0.000102362     3453
   9820000   133.04074     -1611.1019      0             -1343.7766     -19.566681    
SHAKE stats (type/ave/delta/count) on step 9830000
Bond:   1   1         1.30556e-06     6906
Angle:  1   109.47    0.000111539     3453
   9830000   131.38435     -1612.2263      0             -1348.2293     -12.07985     
SHAKE stats (type/ave/delta/count) on step 9840000
Bond:   1   1         1.43326e-06     6906
Angle:  1   109.47    9.75498e-05     3453
   9840000   134.46712     -1601.6325      0             -1331.4411     -16.427048    
SHAKE stats (type/ave/delta/count) on step 9850000
Bond:   1   1         1.21632e-06     6906
Angle:  1   109.47    0.000103139     3453
   9850000   133.2823      -1609.3558      0             -1341.5452     -17.887006    
SHAKE stats (type/ave/delta/count) on step 9860000
Bond:   1   1         1.16782e-06     6906
Angle:  1   109.47    9.0344e-05      3453
   9860000   133.22842     -1606.5447      0             -1338.8423     -4.639137     
SHAKE stats (type/ave/delta/count) on step 9870000
Bond:   1   1         1.16836e-06     6906
Angle:  1   109.47    0.000119922     3453
   9870000   133.03349     -1608.5805      0             -1341.2698      1.7451896    
SHAKE stats (type/ave/delta/count) on step 9880000
Bond:   1   1         1.30679e-06     6906
Angle:  1   109.47    9.00662e-05     3453
   9880000   131.68461     -1602.8175      0             -1338.2172     -11.144246    
SHAKE stats (type/ave/delta/count) on step 9890000
Bond:   1   1         1.26604e-06     6906
Angle:  1   109.47    9.70182e-05     3453
   9890000   132.89564     -1613.6907      0             -1346.6569     -11.479308    
SHAKE stats (type/ave/delta/count) on step 9900000
Bond:   1   1         1.2899e-06      6906
Angle:  1   109.47    0.00011489      3453
   9900000   131.34958     -1613.2963      0             -1349.3692     -21.725741    
SHAKE stats (type/ave/delta/count) on step 9910000
Bond:   1   1         1.19685e-06     6906
Angle:  1   109.47    9.9189e-05      3453
   9910000   133.07176     -1609.2535      0             -1341.8659     -14.874381    
SHAKE stats (type/ave/delta/count) on step 9920000
Bond:   1   1         1.18022e-06     6906
Angle:  1   109.47    9.42919e-05     3453
   9920000   131.48456     -1611.2223      0             -1347.0239     -5.8814224    
SHAKE stats (type/ave/delta/count) on step 9930000
Bond:   1   1         1.17648e-06     6906
Angle:  1   109.47    0.000100995     3453
   9930000   130.32597     -1617.4949      0             -1355.6245     -4.9968633    
SHAKE stats (type/ave/delta/count) on step 9940000
Bond:   1   1         1.31303e-06     6906
Angle:  1   109.47    9.26452e-05     3453
   9940000   133.71185     -1616.4973      0             -1347.8235     -1.340693     
SHAKE stats (type/ave/delta/count) on step 9950000
Bond:   1   1         1.26199e-06     6906
Angle:  1   109.47    9.83399e-05     3453
   9950000   133.95376     -1610.8309      0             -1341.6711     -23.69005     
SHAKE stats (type/ave/delta/count) on step 9960000
Bond:   1   1         1.47964e-06     6906
Angle:  1   109.47    0.000106545     3453
   9960000   134.97722     -1607.783       0             -1336.5667     -6.8305309    
SHAKE stats (type/ave/delta/count) on step 9970000
Bond:   1   1         1.2045e-06      6906
Angle:  1   109.47    9.02676e-05     3453
   9970000   132.99729     -1616.1805      0             -1348.9425      5.7116552    
SHAKE stats (type/ave/delta/count) on step 9980000
Bond:   1   1         1.37685e-06     6906
Angle:  1   109.47    0.000106197     3453
   9980000   131.97176     -1610.0691      0             -1344.8918      2.3020399    
SHAKE stats (type/ave/delta/count) on step 9990000
Bond:   1   1         1.18417e-06     6906
Angle:  1   109.47    9.78533e-05     3453
   9990000   132.19388     -1612.8002      0             -1347.1766     -23.402045    
SHAKE stats (type/ave/delta/count) on step 10000000
Bond:   1   1         1.37306e-06     6906
Angle:  1   109.47    0.00010271      3453
  10000000   133.14084     -1615.9066      0             -1348.3802     -6.1442466    
Loop time of 65698.1 on 640 procs for 10000000 steps with 18999 atoms

Performance: 13.151 ns/day, 1.825 hours/ns, 152.211 timesteps/s, 2.892 Matom-step/s
100.0% CPU use with 640 MPI tasks x 1 OpenMP threads

MPI task timing breakdown:
Section |  min time  |  avg time  |  max time  |%varavg| %total
---------------------------------------------------------------
Pair    | 0.98467    | 785.32     | 12102      |7256.0 |  1.20
Bond    | 0.90031    | 1.6983     | 3.576      |  40.6 |  0.00
Kspace  | 47127      | 57969      | 59335      | 837.2 | 88.24
Neigh   | 2412       | 2482.4     | 2520.7     |  69.3 |  3.78
Comm    | 39.201     | 553.74     | 2376.9     |2742.8 |  0.84
Output  | 0.38418    | 0.39702    | 0.40268    |   0.7 |  0.00
Modify  | 1957.5     | 3667.8     | 4945.9     |1067.5 |  5.58
Other   |            | 237.8      |            |       |  0.36

Nlocal:        29.6859 ave         612 max           0 min
Histogram: 550 58 3 5 3 5 2 3 2 9
Nghost:         298.28 ave        4173 max           0 min
Histogram: 451 119 24 15 15 4 4 5 1 2
Neighs:        4892.77 ave      164348 max           0 min
Histogram: 610 5 4 5 2 2 3 0 3 6

Total # of neighbors = 3131376
Ave neighs/atom = 164.81794
Ave special neighs/atom = 1.0904784
Neighbor list builds = 522471
Dangerous builds = 0

write_restart nvt_equi.restart.*
System init for write_restart ...
PPPM initialization ...
  using 12-bit tables for long-range coulomb (src/kspace.cpp:342)
  G vector (1/distance) = 0.29613742
  grid = 90 90 90
  stencil order = 5
  estimated absolute RMS force accuracy = 0.00016052161
  estimated relative force accuracy = 1.1147609e-05
  using double precision KISS FFT
  3d grid and FFT values/proc = 5184 1350
Generated 0 of 3 mixed pair_coeff terms from geometric mixing rule
write_data nvt_equi_final.lammps-data pair ij
System init for write_data ...
PPPM initialization ...
  using 12-bit tables for long-range coulomb (src/kspace.cpp:342)
  G vector (1/distance) = 0.29613742
  grid = 90 90 90
  stencil order = 5
  estimated absolute RMS force accuracy = 0.00016052161
  estimated relative force accuracy = 1.1147609e-05
  using double precision KISS FFT
  3d grid and FFT values/proc = 5184 1350
Generated 0 of 3 mixed pair_coeff terms from geometric mixing rule

Total wall time: 18:15:49
