LAMMPS (4 Feb 2025)
OMP_NUM_THREADS environment is not set. Defaulting to 1 thread. (src/comm.cpp:99)
  using 1 OpenMP thread(s) per MPI task
# LAMMPS script for running NVT simulation

units       metal                   # Energies in eV, distances in A
dimension   3
boundary    p p p
atom_style  full

read_data   ../start.lammps-data
Reading data file ...
  orthogonal box = (0 0 0) to (154.008 148.19427 151.07317)
  10 by 8 by 8 MPI processor grid
  reading atoms ...
  22680 atoms
  scanning bonds ...
  2 = max bonds/atom
  reading velocities ...
  22680 velocities
  scanning angles ...
  1 = max angles/atom
  orthogonal box = (0 0 0) to (154.008 148.19427 151.07317)
  10 by 8 by 8 MPI processor grid
  reading bonds ...
  9360 bonds
  reading angles ...
  4680 angles
Finding 1-2 1-3 1-4 neighbors ...
  special bond factors lj:    0        0        0       
  special bond factors coul:  0        0        0       
     2 = max # of 1-2 neighbors
     1 = max # of 1-3 neighbors
     1 = max # of 1-4 neighbors
     2 = max # of special neighbors
  special bonds CPU = 6.658 seconds
  read_data CPU = 7.097 seconds

bond_style   zero                    # SPC/E rigid model
bond_coeff   1 1.0                   # SPC/E rigid model
angle_style  zero                    # SPC/E rigid model
angle_coeff  1 109.47                # SPC/E rigid model
pair_style   lj/cut/coul/long 9.0    # Cutoff radius of 0.9 nm = 9 A
kspace_style pppm 1.0e-5             # Particle-particle particle-mesh Ewald summation
pair_coeff   1 1 0.0      1.0        # Ignore C-C
pair_coeff   1 2 0.0      1.0        # Ignore C-H
pair_coeff   1 3 0.004551 3.367      # LJ for C-O (0.4391 kJ/mol = 0.004551 eV)
pair_coeff   2 2 0.0      1.0        # SPC/E H-H
pair_coeff   2 3 0.0      1.0        # SPC/E H-O
pair_coeff   3 3 0.006735 3.166      # SPC/E O-O (0.1553 kcal/mol = 0.006735 eV)

set type 2 charge 0.4238            # SPC/E H
Setting atom values ...
  9360 settings made for charge
set type 3 charge -0.8476           # SPC/E O
Setting atom values ...
  4680 settings made for charge

variable t equal step

group graphene type 1
8640 atoms in group graphene
group H2O type 2 3
14040 atoms in group H2O

######### Energy minimization #########

thermo 10
fix graphene_fix graphene setforce 0.0 0.0 0.0
fix rigid_bonds H2O shake 0.0001 10 10000 b 1 a 1
Finding SHAKE clusters ...
       0 = # of size 2 clusters
       0 = # of size 3 clusters
       0 = # of size 4 clusters
    4680 = # of frozen angles
  find clusters CPU = 0.218 seconds
minimize 0.0 0.0 1000 1000000
PPPM initialization ...
  using 12-bit tables for long-range coulomb (src/kspace.cpp:342)
  G vector (1/distance) = 0.30003007
  grid = 96 90 96
  stencil order = 5
  estimated absolute RMS force accuracy = 0.00016542148
  estimated relative force accuracy = 1.1487886e-05
  using double precision KISS FFT
  3d grid and FFT values/proc = 5472 1440
Generated 0 of 3 mixed pair_coeff terms from geometric mixing rule
WARNING: Using fix shake with minimization.
  Substituting constraints with harmonic restraint forces using kbond=86.17 (src/RIGID/fix_shake.cpp:386)
Neighbor list info ...
  update: every = 1 steps, delay = 0 steps, check = yes
  max neighbors/atom: 2000, page size: 100000
  master list distance cutoff = 11
  ghost atom cutoff = 11
  binsize = 5.5, bins = 29 27 28
  1 neighbor lists, perpetual/occasional/extra = 1 0 0
  (1) pair lj/cut/coul/long, perpetual
      attributes: half, newton on
      pair build: half/bin/newton
      stencil: half/bin/3d
      bin: standard
Per MPI rank memory allocation (min/avg/max) = 9.215 | 9.306 | 10.13 Mbytes
   Step          Temp          E_pair         E_mol          TotEng         Press     
         0   236.01419     -1579.7993      0             -1030.6997      1869.4386    
        10   236.01419     -2097.1258      0             -1507.5411      527.28245    
        16   236.01419     -2212.7622      0              4583860.8     -813811.83    
SHAKE stats (type/ave/delta/count) on step 16
Bond:   1   1.47583   28.4668         9358
Angle:  1   105.037   177.244         4671
Loop time of 0.392414 on 640 procs for 16 steps with 22680 atoms

97.9% CPU use with 640 MPI tasks x 1 OpenMP threads

Minimization stats:
  Stopping criterion = linesearch alpha is zero
  Energy initial, next-to-last, final = 
     -1579.79928640527  -2164.72924266911   4583311.74899877
  Force two-norm initial, final = 947.6242 63944.592
  Force max component initial, final = 721.99197 6499.6356
  Final line search alpha, max atom move = 1.2505362e-12 8.1280297e-09
  Iterations, force evaluations = 16 49

MPI task timing breakdown:
Section |  min time  |  avg time  |  max time  |%varavg| %total
---------------------------------------------------------------
Pair    | 7.633e-06  | 0.0075257  | 0.19975    |  33.9 |  1.92
Bond    | 6.662e-06  | 1.5636e-05 | 3.0587e-05 |   0.0 |  0.00
Kspace  | 0.16483    | 0.36358    | 0.37273    |   5.1 | 92.65
Neigh   | 0.0044398  | 0.0047939  | 0.0049014  |   0.2 |  1.22
Comm    | 0.00011424 | 0.0022961  | 0.011897   |   6.6 |  0.59
Output  | 0.00015563 | 0.00016204 | 0.00018335 |   0.0 |  0.04
Modify  | 0.00012504 | 0.0013636  | 0.0026394  |   1.0 |  0.35
Other   |            | 0.01268    |            |       |  3.23

Nlocal:        35.4375 ave         625 max           0 min
Histogram: 544 54 5 5 4 6 5 3 2 12
Nghost:        361.395 ave        4185 max           0 min
Histogram: 445 104 26 20 19 9 5 5 3 4
Neighs:        6274.81 ave      170788 max           0 min
Histogram: 603 5 4 6 5 2 3 1 2 9

Total # of neighbors = 4015876
Ave neighs/atom = 177.06684
Ave special neighs/atom = 1.2380952
Neighbor list builds = 1
Dangerous builds = 0
unfix graphene_fix
reset_timestep 0

######### Soft run to prevent explosion #########

thermo 150
timestep 0.00001
fix NVT1 H2O nvt temp 300 300 $(20.0*dt)
fix NVT1 H2O nvt temp 300 300 0.00020000000000000000958
run 1500
PPPM initialization ...
  using 12-bit tables for long-range coulomb (src/kspace.cpp:342)
  G vector (1/distance) = 0.30003007
  grid = 96 90 96
  stencil order = 5
  estimated absolute RMS force accuracy = 0.00016542148
  estimated relative force accuracy = 1.1487886e-05
  using double precision KISS FFT
  3d grid and FFT values/proc = 5472 1440
Generated 0 of 3 mixed pair_coeff terms from geometric mixing rule
SHAKE stats (type/ave/delta/count) on step 0
Bond:   1   1.00617   0.169705        9360
Angle:  1   108.276   13.5819         4680
Per MPI rank memory allocation (min/avg/max) = 8.09 | 8.181 | 9.005 Mbytes
   Step          Temp          E_pair         E_mol          TotEng         Press     
         0   236.01419     -2212.7622      0             -1663.6625     -2321.6801    
       150   155.45467     -2131.9168      0             -1770.2432     -166.3011     
       300   153.68798     -2127.2246      0             -1769.6613     -162.32413    
       450   153.83953     -2119.9097      0             -1761.9939     -154.88796    
       600   156.89508     -2111.1317      0             -1746.1069     -144.49624    
       750   156.28476     -2102.1096      0             -1738.5048     -134.62084    
       900   155.36098     -2094.0558      0             -1732.6002     -125.0751     
      1050   156.94336     -2087.9124      0             -1722.7753     -115.53696    
      1200   156.8218      -2084.2837      0             -1719.4294     -108.34046    
      1350   155.68911     -2083.2818      0             -1721.0628     -103.41844    
      1500   156.09635     -2084.64        0             -1721.4735     -99.636204    
Loop time of 9.60748 on 640 procs for 1500 steps with 22680 atoms

Performance: 0.135 ns/day, 177.916 hours/ns, 156.128 timesteps/s, 3.541 Matom-step/s
99.9% CPU use with 640 MPI tasks x 1 OpenMP threads

MPI task timing breakdown:
Section |  min time  |  avg time  |  max time  |%varavg| %total
---------------------------------------------------------------
Pair    | 0.00012732 | 0.15402    | 4.1704     | 156.8 |  1.60
Bond    | 0.0001137  | 0.00026462 | 0.00054711 |   0.0 |  0.00
Kspace  | 4.8424     | 8.8028     | 9.0225     |  20.5 | 91.62
Neigh   | 0          | 0          | 0          |   0.0 |  0.00
Comm    | 0.00041331 | 0.084395   | 0.48159    |  45.4 |  0.88
Output  | 0.0019933  | 0.0020432  | 0.0021453  |   0.1 |  0.02
Modify  | 0.23536    | 0.53248    | 0.67236    |  15.8 |  5.54
Other   |            | 0.03148    |            |       |  0.33

Nlocal:        35.4375 ave         625 max           0 min
Histogram: 544 54 5 5 4 5 6 3 2 12
Nghost:        361.384 ave        4184 max           0 min
Histogram: 445 104 26 20 19 9 5 5 3 4
Neighs:        6274.29 ave      170528 max           0 min
Histogram: 603 5 4 6 5 2 3 1 2 9

Total # of neighbors = 4015548
Ave neighs/atom = 177.05238
Ave special neighs/atom = 1.2380952
Neighbor list builds = 0
Dangerous builds = 0
unfix NVT1
reset_timestep 0

######### A little bit faster #########

thermo 150
timestep 0.00002
fix NVT1 H2O nvt temp 300 300 $(25.0*dt)
fix NVT1 H2O nvt temp 300 300 0.00050000000000000001041
run 1500
PPPM initialization ...
  using 12-bit tables for long-range coulomb (src/kspace.cpp:342)
  G vector (1/distance) = 0.30003007
  grid = 96 90 96
  stencil order = 5
  estimated absolute RMS force accuracy = 0.00016542148
  estimated relative force accuracy = 1.1487886e-05
  using double precision KISS FFT
  3d grid and FFT values/proc = 5472 1440
Generated 0 of 3 mixed pair_coeff terms from geometric mixing rule
SHAKE stats (type/ave/delta/count) on step 0
Bond:   1   1         3.50425e-10     9360
Angle:  1   109.47    3.60579e-08     4680
Per MPI rank memory allocation (min/avg/max) = 8.09 | 8.181 | 9.005 Mbytes
   Step          Temp          E_pair         E_mol          TotEng         Press     
         0   156.09635     -2084.64        0             -1721.4735     -99.652619    
       150   157.01631     -2092.0079      0             -1726.701      -95.924647    
       300   156.70301     -2100.6142      0             -1736.0363     -94.289143    
       450   154.59087     -2106.5748      0             -1746.9109     -92.008635    
       600   155.7651      -2109.3336      0             -1746.9378     -86.521318    
       750   157.58195     -2110.6433      0             -1744.0205     -79.967364    
       900   155.08764     -2112.6995      0             -1751.8798     -76.034927    
      1050   156.71976     -2116.4596      0             -1751.8427     -72.261497    
      1200   154.32936     -2121.4399      0             -1762.3844     -71.717635    
      1350   155.77644     -2126.5344      0             -1764.1122     -70.461887    
      1500   158.06193     -2130.7772      0             -1763.0377     -68.6797      
Loop time of 9.61207 on 640 procs for 1500 steps with 22680 atoms

Performance: 0.270 ns/day, 89.001 hours/ns, 156.054 timesteps/s, 3.539 Matom-step/s
100.0% CPU use with 640 MPI tasks x 1 OpenMP threads

MPI task timing breakdown:
Section |  min time  |  avg time  |  max time  |%varavg| %total
---------------------------------------------------------------
Pair    | 0.00012989 | 0.15419    | 4.1777     | 157.0 |  1.60
Bond    | 0.00010749 | 0.00026701 | 0.00054797 |   0.0 |  0.00
Kspace  | 4.8333     | 8.806      | 9.0281     |  20.6 | 91.61
Neigh   | 0.0042978  | 0.006358   | 0.0066162  |   0.8 |  0.07
Comm    | 0.00051868 | 0.084823   | 0.48181    |  45.4 |  0.88
Output  | 0.0020329  | 0.0020832  | 0.0021841  |   0.0 |  0.02
Modify  | 0.23032    | 0.52722    | 0.66944    |  15.9 |  5.49
Other   |            | 0.03108    |            |       |  0.32

Nlocal:        35.4375 ave         631 max           0 min
Histogram: 544 54 5 5 4 6 5 3 3 11
Nghost:        361.341 ave        4188 max           0 min
Histogram: 445 105 26 19 19 9 5 5 3 4
Neighs:        6279.63 ave      170035 max           0 min
Histogram: 603 5 3 6 6 2 3 0 3 9

Total # of neighbors = 4018964
Ave neighs/atom = 177.203
Ave special neighs/atom = 1.2380952
Neighbor list builds = 1
Dangerous builds = 0
unfix NVT1
reset_timestep 0

######### And faster still #########

thermo 150
timestep 0.00005
fix NVT1 H2O nvt temp 300 300 $(30.0*dt)
fix NVT1 H2O nvt temp 300 300 0.0015000000000000000312
run 1500
PPPM initialization ...
  using 12-bit tables for long-range coulomb (src/kspace.cpp:342)
  G vector (1/distance) = 0.30003007
  grid = 96 90 96
  stencil order = 5
  estimated absolute RMS force accuracy = 0.00016542148
  estimated relative force accuracy = 1.1487886e-05
  using double precision KISS FFT
  3d grid and FFT values/proc = 5472 1440
Generated 0 of 3 mixed pair_coeff terms from geometric mixing rule
SHAKE stats (type/ave/delta/count) on step 0
Bond:   1   1         4.92809e-11     9360
Angle:  1   109.47    3.48845e-09     4680
Per MPI rank memory allocation (min/avg/max) = 8.09 | 8.181 | 9.005 Mbytes
   Step          Temp          E_pair         E_mol          TotEng         Press     
         0   158.06193     -2130.7772      0             -1763.0377     -68.676178    
       150   155.28031     -2136.9992      0             -1775.7313     -64.413933    
       300   155.68959     -2141.6369      0             -1779.4168     -57.55232     
       450   154.59267     -2145.5112      0             -1785.8431     -50.230344    
       600   155.62635     -2149.4611      0             -1787.3881     -41.515981    
       750   156.54622     -2153.2818      0             -1789.0687     -34.656119    
       900   157.19309     -2155.3113      0             -1789.5932     -27.522513    
      1050   157.12588     -2159.8101      0             -1794.2483     -21.4169      
      1200   154.48254     -2164.0431      0             -1804.6312     -17.427834    
      1350   155.86702     -2168.0973      0             -1805.4644     -17.064016    
      1500   155.16383     -2170.8027      0             -1809.8057     -18.819836    
Loop time of 9.67332 on 640 procs for 1500 steps with 22680 atoms

Performance: 0.670 ns/day, 35.827 hours/ns, 155.066 timesteps/s, 3.517 Matom-step/s
100.0% CPU use with 640 MPI tasks x 1 OpenMP threads

MPI task timing breakdown:
Section |  min time  |  avg time  |  max time  |%varavg| %total
---------------------------------------------------------------
Pair    | 0.00013079 | 0.15455    | 4.2248     | 157.2 |  1.60
Bond    | 0.00011012 | 0.00026914 | 0.00054099 |   0.0 |  0.00
Kspace  | 4.8203     | 8.8502     | 9.0679     |  20.6 | 91.49
Neigh   | 0.018094   | 0.01919    | 0.01952    |   0.3 |  0.20
Comm    | 0.00079487 | 0.085167   | 0.48301    |  45.3 |  0.88
Output  | 0.0022294  | 0.0022728  | 0.0023844  |   0.0 |  0.02
Modify  | 0.23461    | 0.53078    | 0.66907    |  15.8 |  5.49
Other   |            | 0.03088    |            |       |  0.32

Nlocal:        35.4375 ave         628 max           0 min
Histogram: 544 54 5 5 4 5 6 3 3 11
Nghost:        361.719 ave        4201 max           0 min
Histogram: 446 104 26 19 19 9 5 5 3 4
Neighs:        6316.95 ave      171630 max           0 min
Histogram: 603 4 4 6 6 2 3 1 2 9

Total # of neighbors = 4042848
Ave neighs/atom = 178.25608
Ave special neighs/atom = 1.2380952
Neighbor list builds = 4
Dangerous builds = 0
unfix NVT1
reset_timestep 0

######### NVT equilibration for 10 ns #############

thermo 10000
#dump DUMP1 all atom 100 nvt_equi.lammpstrj
timestep 0.001
fix NVT1 H2O nvt temp 300 300 $(100.0*dt)
fix NVT1 H2O nvt temp 300 300 0.10000000000000000555
run 10000000
PPPM initialization ...
  using 12-bit tables for long-range coulomb (src/kspace.cpp:342)
  G vector (1/distance) = 0.30003007
  grid = 96 90 96
  stencil order = 5
  estimated absolute RMS force accuracy = 0.00016542148
  estimated relative force accuracy = 1.1487886e-05
  using double precision KISS FFT
  3d grid and FFT values/proc = 5472 1440
Generated 0 of 3 mixed pair_coeff terms from geometric mixing rule
SHAKE stats (type/ave/delta/count) on step 0
Bond:   1   1         1.92661e-09     9360
Angle:  1   109.47    1.47628e-07     4680
Per MPI rank memory allocation (min/avg/max) = 8.09 | 8.181 | 9.005 Mbytes
   Step          Temp          E_pair         E_mol          TotEng         Press     
         0   155.16383     -2170.8027      0             -1809.8057     -18.969405    
SHAKE stats (type/ave/delta/count) on step 10000
Bond:   1   1         1.39989e-06     9360
Angle:  1   109.47    0.000103293     4680
     10000   155.93204     -2184.5436      0             -1821.7594     -11.378728    
SHAKE stats (type/ave/delta/count) on step 20000
Bond:   1   1         1.3686e-06      9360
Angle:  1   109.47    9.75583e-05     4680
     20000   155.778       -2189.5353      0             -1827.1095      0.078161271  
SHAKE stats (type/ave/delta/count) on step 30000
Bond:   1   1         1.22375e-06     9360
Angle:  1   109.47    0.00010788      4680
     30000   156.65        -2192.6603      0             -1828.2057     -17.323607    
SHAKE stats (type/ave/delta/count) on step 40000
Bond:   1   1         1.40246e-06     9360
Angle:  1   109.47    0.000111368     4680
     40000   157.54815     -2190.0545      0             -1823.5103     -13.248309    
SHAKE stats (type/ave/delta/count) on step 50000
Bond:   1   1         1.35056e-06     9360
Angle:  1   109.47    9.75532e-05     4680
     50000   156.45978     -2196.5793      0             -1832.5673     -18.88783     
SHAKE stats (type/ave/delta/count) on step 60000
Bond:   1   1         1.24453e-06     9360
Angle:  1   109.47    0.000116339     4680
     60000   155.86916     -2186.4817      0             -1823.8437     -25.326092    
SHAKE stats (type/ave/delta/count) on step 70000
Bond:   1   1         1.52834e-06     9360
Angle:  1   109.47    0.000122173     4680
     70000   157.23644     -2189.9117      0             -1824.0927     -7.3735454    
SHAKE stats (type/ave/delta/count) on step 80000
Bond:   1   1         1.20642e-06     9360
Angle:  1   109.47    9.73985e-05     4680
     80000   153.4405      -2187.7431      0             -1830.7556     -14.329631    
SHAKE stats (type/ave/delta/count) on step 90000
Bond:   1   1         1.38726e-06     9360
Angle:  1   109.47    0.000102097     4680
     90000   157.14723     -2195.6618      0             -1830.0504     -12.02006     
SHAKE stats (type/ave/delta/count) on step 100000
Bond:   1   1         1.18371e-06     9360
Angle:  1   109.47    9.3906e-05      4680
    100000   152.96286     -2191.6141      0             -1835.7379     -8.8781676    
SHAKE stats (type/ave/delta/count) on step 110000
Bond:   1   1         1.25158e-06     9360
Angle:  1   109.47    0.000107823     4680
    110000   155.95739     -2190.3952      0             -1827.552      -17.315307    
SHAKE stats (type/ave/delta/count) on step 120000
Bond:   1   1         1.27073e-06     9360
Angle:  1   109.47    9.76055e-05     4680
    120000   157.34252     -2189.498       0             -1823.4322     -20.895569    
SHAKE stats (type/ave/delta/count) on step 130000
Bond:   1   1         1.30477e-06     9360
Angle:  1   109.47    9.76987e-05     4680
    130000   156.34378     -2192.3006      0             -1828.5585     -12.507548    
SHAKE stats (type/ave/delta/count) on step 140000
Bond:   1   1         1.31579e-06     9360
Angle:  1   109.47    9.3555e-05      4680
    140000   154.27297     -2199.2109      0             -1840.2866     -8.1765979    
SHAKE stats (type/ave/delta/count) on step 150000
Bond:   1   1         1.33009e-06     9360
Angle:  1   109.47    9.61747e-05     4680
    150000   157.79218     -2190.246       0             -1823.134      -8.2587814    
SHAKE stats (type/ave/delta/count) on step 160000
Bond:   1   1         1.2096e-06      9360
Angle:  1   109.47    0.000105617     4680
    160000   154.79139     -2186.697       0             -1826.5666     -7.6126268    
SHAKE stats (type/ave/delta/count) on step 170000
Bond:   1   1         1.54574e-06     9360
Angle:  1   109.47    9.81291e-05     4680
    170000   156.08585     -2186.1558      0             -1823.0138     -14.834993    
SHAKE stats (type/ave/delta/count) on step 180000
Bond:   1   1         1.29778e-06     9360
Angle:  1   109.47    9.95966e-05     4680
    180000   156.27031     -2186.4929      0             -1822.9217     -23.18865     
SHAKE stats (type/ave/delta/count) on step 190000
Bond:   1   1         1.45141e-06     9360
Angle:  1   109.47    0.000134856     4680
    190000   156.80351     -2188.1261      0             -1823.3144     -5.6790594    
SHAKE stats (type/ave/delta/count) on step 200000
Bond:   1   1         1.53072e-06     9360
Angle:  1   109.47    0.000102134     4680
    200000   158.01371     -2186.4635      0             -1818.8362     -6.5604453    
SHAKE stats (type/ave/delta/count) on step 210000
Bond:   1   1         1.2495e-06      9360
Angle:  1   109.47    0.000100619     4680
    210000   154.51299     -2195.3671      0             -1835.8844     -6.4629359    
SHAKE stats (type/ave/delta/count) on step 220000
Bond:   1   1         1.29048e-06     9360
Angle:  1   109.47    9.58455e-05     4680
    220000   155.94743     -2178.7609      0             -1815.9409     -3.1212805    
SHAKE stats (type/ave/delta/count) on step 230000
Bond:   1   1         1.31675e-06     9360
Angle:  1   109.47    9.90357e-05     4680
    230000   155.64431     -2192.8663      0             -1830.7515     -5.2743381    
SHAKE stats (type/ave/delta/count) on step 240000
Bond:   1   1         1.24573e-06     9360
Angle:  1   109.47    0.000105608     4680
    240000   155.9752      -2192.721       0             -1829.8364      0.81267233   
SHAKE stats (type/ave/delta/count) on step 250000
Bond:   1   1         1.34394e-06     9360
Angle:  1   109.47    0.000106532     4680
    250000   157.82576     -2189.2938      0             -1822.1037     -8.5830547    
SHAKE stats (type/ave/delta/count) on step 260000
Bond:   1   1         1.43793e-06     9360
Angle:  1   109.47    0.000108219     4680
    260000   155.69672     -2200.5584      0             -1838.3217     -0.40263252   
SHAKE stats (type/ave/delta/count) on step 270000
Bond:   1   1         1.31392e-06     9360
Angle:  1   109.47    0.00010703      4680
    270000   153.64422     -2192.8014      0             -1835.3399     -7.8290441    
SHAKE stats (type/ave/delta/count) on step 280000
Bond:   1   1         1.44403e-06     9360
Angle:  1   109.47    0.000104301     4680
    280000   156.63562     -2193.5767      0             -1829.1556     -6.7553421    
SHAKE stats (type/ave/delta/count) on step 290000
Bond:   1   1         1.47251e-06     9360
Angle:  1   109.47    0.000104271     4680
    290000   156.30692     -2193.6284      0             -1829.972      -14.778099    
SHAKE stats (type/ave/delta/count) on step 300000
Bond:   1   1         1.43418e-06     9360
Angle:  1   109.47    9.61922e-05     4680
    300000   153.91095     -2196.133       0             -1838.051      -11.658908    
SHAKE stats (type/ave/delta/count) on step 310000
Bond:   1   1         1.5351e-06      9360
Angle:  1   109.47    0.000119831     4680
    310000   158.72029     -2191.3104      0             -1822.0392     -9.1538587    
SHAKE stats (type/ave/delta/count) on step 320000
Bond:   1   1         1.45206e-06     9360
Angle:  1   109.47    9.6667e-05      4680
    320000   153.62466     -2190.7576      0             -1833.3416     -22.437044    
SHAKE stats (type/ave/delta/count) on step 330000
Bond:   1   1         1.7689e-06      9360
Angle:  1   109.47    0.000117246     4680
    330000   155.88423     -2184.7535      0             -1822.0805     -4.0309098    
SHAKE stats (type/ave/delta/count) on step 340000
Bond:   1   1         1.17307e-06     9360
Angle:  1   109.47    0.00011088      4680
    340000   155.14232     -2185.6455      0             -1824.6986     -5.5163362    
SHAKE stats (type/ave/delta/count) on step 350000
Bond:   1   1         1.50806e-06     9360
Angle:  1   109.47    0.000104006     4680
    350000   154.72523     -2191.7042      0             -1831.7277     -14.887001    
SHAKE stats (type/ave/delta/count) on step 360000
Bond:   1   1         1.53101e-06     9360
Angle:  1   109.47    0.000114629     4680
    360000   160.2504      -2188.1811      0             -1815.35       -15.819945    
SHAKE stats (type/ave/delta/count) on step 370000
Bond:   1   1         1.29842e-06     9360
Angle:  1   109.47    9.58416e-05     4680
    370000   156.80139     -2190.974       0             -1826.1672     -15.901436    
SHAKE stats (type/ave/delta/count) on step 380000
Bond:   1   1         1.53367e-06     9360
Angle:  1   109.47    0.000116838     4680
    380000   154.82427     -2200.2685      0             -1840.0615     -17.954002    
SHAKE stats (type/ave/delta/count) on step 390000
Bond:   1   1         1.42359e-06     9360
Angle:  1   109.47    0.000114024     4680
    390000   155.6712      -2182.6776      0             -1820.5002     -28.848073    
SHAKE stats (type/ave/delta/count) on step 400000
Bond:   1   1         1.15349e-06     9360
Angle:  1   109.47    0.000104318     4680
    400000   156.52599     -2184.1467      0             -1819.9807     -22.8126      
SHAKE stats (type/ave/delta/count) on step 410000
Bond:   1   1         1.6016e-06      9360
Angle:  1   109.47    0.000107968     4680
    410000   154.55682     -2190.8269      0             -1831.2423     -18.963635    
SHAKE stats (type/ave/delta/count) on step 420000
Bond:   1   1         1.42049e-06     9360
Angle:  1   109.47    0.000117565     4680
    420000   156.47432     -2191.9128      0             -1827.8669     -17.916309    
SHAKE stats (type/ave/delta/count) on step 430000
Bond:   1   1         1.15512e-06     9360
Angle:  1   109.47    0.000106996     4680
    430000   156.90963     -2186.2524      0             -1821.1937      2.1988432    
SHAKE stats (type/ave/delta/count) on step 440000
Bond:   1   1         1.24624e-06     9360
Angle:  1   109.47    0.000111646     4680
    440000   155.75109     -2185.4192      0             -1823.056      -9.2276441    
SHAKE stats (type/ave/delta/count) on step 450000
Bond:   1   1         1.47563e-06     9360
Angle:  1   109.47    0.000103056     4680
    450000   155.90746     -2188.7198      0             -1825.9928     -9.5616613    
SHAKE stats (type/ave/delta/count) on step 460000
Bond:   1   1         1.12531e-06     9360
Angle:  1   109.47    0.000100895     4680
    460000   154.4325      -2192.7443      0             -1833.4489      2.2433881    
SHAKE stats (type/ave/delta/count) on step 470000
Bond:   1   1         1.16636e-06     9360
Angle:  1   109.47    0.000110837     4680
    470000   155.16199     -2196.3345      0             -1835.3419     -19.456884    
SHAKE stats (type/ave/delta/count) on step 480000
Bond:   1   1         1.35656e-06     9360
Angle:  1   109.47    0.000129523     4680
    480000   152.43901     -2195.3888      0             -1840.7313     -7.4438551    
SHAKE stats (type/ave/delta/count) on step 490000
Bond:   1   1         1.76688e-06     9360
Angle:  1   109.47    0.000100925     4680
    490000   156.86601     -2192.9022      0             -1827.9451     -8.8322524    
SHAKE stats (type/ave/delta/count) on step 500000
Bond:   1   1         1.1898e-06      9360
Angle:  1   109.47    9.55907e-05     4680
    500000   156.01142     -2192.7081      0             -1829.7392     -10.33189     
SHAKE stats (type/ave/delta/count) on step 510000
Bond:   1   1         1.09897e-06     9360
Angle:  1   109.47    0.000103286     4680
    510000   156.50697     -2181.9924      0             -1817.8706     -12.771515    
SHAKE stats (type/ave/delta/count) on step 520000
Bond:   1   1         1.32363e-06     9360
Angle:  1   109.47    0.000110226     4680
    520000   155.94173     -2188.6751      0             -1825.8683      8.0347325    
SHAKE stats (type/ave/delta/count) on step 530000
Bond:   1   1         1.42473e-06     9360
Angle:  1   109.47    0.000101545     4680
    530000   155.3058      -2196.2187      0             -1834.8915     -14.451955    
SHAKE stats (type/ave/delta/count) on step 540000
Bond:   1   1         1.22363e-06     9360
Angle:  1   109.47    9.45439e-05     4680
    540000   155.81528     -2188.5022      0             -1825.9896     -1.6054875    
SHAKE stats (type/ave/delta/count) on step 550000
Bond:   1   1         1.27859e-06     9360
Angle:  1   109.47    9.88207e-05     4680
    550000   156.23031     -2188.4585      0             -1824.9803     -1.9327915    
SHAKE stats (type/ave/delta/count) on step 560000
Bond:   1   1         1.1872e-06      9360
Angle:  1   109.47    9.77199e-05     4680
    560000   156.16326     -2187.3598      0             -1824.0377     -5.5567168    
SHAKE stats (type/ave/delta/count) on step 570000
Bond:   1   1         1.78274e-06     9360
Angle:  1   109.47    0.000122881     4680
    570000   154.77378     -2182.4234      0             -1822.334      -7.9585061    
SHAKE stats (type/ave/delta/count) on step 580000
Bond:   1   1         1.24016e-06     9360
Angle:  1   109.47    9.20834e-05     4680
    580000   156.25289     -2200.0944      0             -1836.5638     -9.1605227    
SHAKE stats (type/ave/delta/count) on step 590000
Bond:   1   1         1.17781e-06     9360
Angle:  1   109.47    9.09812e-05     4680
    590000   155.32848     -2187.3732      0             -1825.9932     -10.435723    
SHAKE stats (type/ave/delta/count) on step 600000
Bond:   1   1         1.18067e-06     9360
Angle:  1   109.47    0.000102031     4680
    600000   156.90485     -2196.3532      0             -1831.3056     -2.4179422    
SHAKE stats (type/ave/delta/count) on step 610000
Bond:   1   1         1.25386e-06     9360
Angle:  1   109.47    9.79668e-05     4680
    610000   154.5784      -2184.1516      0             -1824.5167     -6.0564795    
SHAKE stats (type/ave/delta/count) on step 620000
Bond:   1   1         1.27116e-06     9360
Angle:  1   109.47    9.58001e-05     4680
    620000   155.39088     -2192.3044      0             -1830.7792     -2.894797     
SHAKE stats (type/ave/delta/count) on step 630000
Bond:   1   1         1.51775e-06     9360
Angle:  1   109.47    0.000100046     4680
    630000   152.15694     -2195.9394      0             -1841.9382     -14.143632    
SHAKE stats (type/ave/delta/count) on step 640000
Bond:   1   1         1.32695e-06     9360
Angle:  1   109.47    0.00010632      4680
    640000   157.48075     -2197.0713      0             -1830.684      -7.9507582    
SHAKE stats (type/ave/delta/count) on step 650000
Bond:   1   1         1.98945e-06     9360
Angle:  1   109.47    0.000131119     4680
    650000   156.71649     -2189.7293      0             -1825.12       -18.097404    
SHAKE stats (type/ave/delta/count) on step 660000
Bond:   1   1         1.59424e-06     9360
Angle:  1   109.47    0.000113932     4680
    660000   156.918       -2189.1287      0             -1824.0505     -13.500337    
SHAKE stats (type/ave/delta/count) on step 670000
Bond:   1   1         1.6323e-06      9360
Angle:  1   109.47    0.000112408     4680
    670000   154.27566     -2195.8939      0             -1836.9634     -14.004314    
SHAKE stats (type/ave/delta/count) on step 680000
Bond:   1   1         1.21066e-06     9360
Angle:  1   109.47    9.60995e-05     4680
    680000   157.03773     -2197.3625      0             -1832.0059     -8.4170666    
SHAKE stats (type/ave/delta/count) on step 690000
Bond:   1   1         1.18268e-06     9360
Angle:  1   109.47    0.000112243     4680
    690000   153.89163     -2197.5714      0             -1839.5343     -0.66089921   
SHAKE stats (type/ave/delta/count) on step 700000
Bond:   1   1         1.25269e-06     9360
Angle:  1   109.47    0.000102479     4680
    700000   154.51279     -2194.2135      0             -1834.7312     -16.773416    
SHAKE stats (type/ave/delta/count) on step 710000
Bond:   1   1         1.33019e-06     9360
Angle:  1   109.47    0.000123943     4680
    710000   155.72229     -2192.5201      0             -1830.2239     -19.059902    
SHAKE stats (type/ave/delta/count) on step 720000
Bond:   1   1         1.23037e-06     9360
Angle:  1   109.47    9.26959e-05     4680
    720000   156.22109     -2194.8044      0             -1831.3477     -22.255379    
SHAKE stats (type/ave/delta/count) on step 730000
Bond:   1   1         1.22805e-06     9360
Angle:  1   109.47    0.000110103     4680
    730000   156.7542      -2198.344       0             -1833.647      -13.896135    
SHAKE stats (type/ave/delta/count) on step 740000
Bond:   1   1         1.56259e-06     9360
Angle:  1   109.47    0.000118979     4680
    740000   157.72526     -2190.9452      0             -1823.9889     -15.518759    
SHAKE stats (type/ave/delta/count) on step 750000
Bond:   1   1         1.50757e-06     9360
Angle:  1   109.47    0.000103508     4680
    750000   155.22787     -2192.5785      0             -1831.4326     -2.0780235    
SHAKE stats (type/ave/delta/count) on step 760000
Bond:   1   1         1.19899e-06     9360
Angle:  1   109.47    0.000103988     4680
    760000   157.14874     -2190.0086      0             -1824.3937     -30.583894    
SHAKE stats (type/ave/delta/count) on step 770000
Bond:   1   1         1.37679e-06     9360
Angle:  1   109.47    9.19687e-05     4680
    770000   155.87062     -2192.4687      0             -1829.8274     -1.6782815    
SHAKE stats (type/ave/delta/count) on step 780000
Bond:   1   1         1.30205e-06     9360
Angle:  1   109.47    0.000100408     4680
    780000   155.47686     -2200.1756      0             -1838.4504     -8.3208168    
SHAKE stats (type/ave/delta/count) on step 790000
Bond:   1   1         1.12374e-06     9360
Angle:  1   109.47    9.38641e-05     4680
    790000   154.48731     -2192.4947      0             -1833.0717     -0.7572884    
SHAKE stats (type/ave/delta/count) on step 800000
Bond:   1   1         1.25652e-06     9360
Angle:  1   109.47    9.79008e-05     4680
    800000   156.23879     -2189.0251      0             -1825.5272     -11.262997    
SHAKE stats (type/ave/delta/count) on step 810000
Bond:   1   1         1.36815e-06     9360
Angle:  1   109.47    9.15313e-05     4680
    810000   154.32172     -2193.3188      0             -1834.281       2.9708035    
SHAKE stats (type/ave/delta/count) on step 820000
Bond:   1   1         1.24513e-06     9360
Angle:  1   109.47    9.57594e-05     4680
    820000   157.93079     -2188.5875      0             -1821.1531     -18.989788    
SHAKE stats (type/ave/delta/count) on step 830000
Bond:   1   1         1.36151e-06     9360
Angle:  1   109.47    0.00010484      4680
    830000   156.0579      -2196.8487      0             -1833.7717     -10.643881    
SHAKE stats (type/ave/delta/count) on step 840000
Bond:   1   1         1.45828e-06     9360
Angle:  1   109.47    0.000103694     4680
    840000   156.41651     -2186.3766      0             -1822.4653     -16.610804    
SHAKE stats (type/ave/delta/count) on step 850000
Bond:   1   1         1.43102e-06     9360
Angle:  1   109.47    9.72707e-05     4680
    850000   154.52194     -2191.8141      0             -1832.3105     -15.58585     
SHAKE stats (type/ave/delta/count) on step 860000
Bond:   1   1         1.53083e-06     9360
Angle:  1   109.47    0.000110388     4680
    860000   154.06059     -2189.0156      0             -1830.5854     -10.835072    
SHAKE stats (type/ave/delta/count) on step 870000
Bond:   1   1         1.51562e-06     9360
Angle:  1   109.47    0.000105454     4680
    870000   157.82234     -2182.1439      0             -1814.9618     -3.5355545    
SHAKE stats (type/ave/delta/count) on step 880000
Bond:   1   1         1.37813e-06     9360
Angle:  1   109.47    9.8962e-05      4680
    880000   156.35666     -2192.2903      0             -1828.5182     -14.595898    
SHAKE stats (type/ave/delta/count) on step 890000
Bond:   1   1         1.23911e-06     9360
Angle:  1   109.47    9.95239e-05     4680
    890000   156.45817     -2192.8608      0             -1828.8525     -23.074862    
SHAKE stats (type/ave/delta/count) on step 900000
Bond:   1   1         1.37106e-06     9360
Angle:  1   109.47    0.000102426     4680
    900000   156.00086     -2186.2738      0             -1823.3294     -17.696836    
SHAKE stats (type/ave/delta/count) on step 910000
Bond:   1   1         1.31132e-06     9360
Angle:  1   109.47    9.43633e-05     4680
    910000   156.54326     -2185.0076      0             -1820.8013     -2.2984916    
SHAKE stats (type/ave/delta/count) on step 920000
Bond:   1   1         1.20329e-06     9360
Angle:  1   109.47    0.000102648     4680
    920000   154.6697      -2190.5429      0             -1830.6956      0.25470366   
SHAKE stats (type/ave/delta/count) on step 930000
Bond:   1   1         1.34102e-06     9360
Angle:  1   109.47    9.82315e-05     4680
    930000   153.98687     -2190.1643      0             -1831.9057     -5.1473198    
SHAKE stats (type/ave/delta/count) on step 940000
Bond:   1   1         1.71138e-06     9360
Angle:  1   109.47    0.000104274     4680
    940000   154.71961     -2188.0932      0             -1828.1298     -4.8759514    
SHAKE stats (type/ave/delta/count) on step 950000
Bond:   1   1         1.33366e-06     9360
Angle:  1   109.47    0.000100857     4680
    950000   153.9603      -2188.1705      0             -1829.9736     -2.5411781    
SHAKE stats (type/ave/delta/count) on step 960000
Bond:   1   1         1.2732e-06      9360
Angle:  1   109.47    0.00010047      4680
    960000   156.39695     -2191.9548      0             -1828.0889      2.343108     
SHAKE stats (type/ave/delta/count) on step 970000
Bond:   1   1         1.53468e-06     9360
Angle:  1   109.47    0.000110537     4680
    970000   154.21008     -2189.9856      0             -1831.2076     -18.715603    
SHAKE stats (type/ave/delta/count) on step 980000
Bond:   1   1         1.32404e-06     9360
Angle:  1   109.47    9.72107e-05     4680
    980000   155.89901     -2193.2365      0             -1830.5292     -14.530234    
SHAKE stats (type/ave/delta/count) on step 990000
Bond:   1   1         1.34312e-06     9360
Angle:  1   109.47    9.04597e-05     4680
    990000   155.43879     -2188.623       0             -1826.9864     -1.2766753    
SHAKE stats (type/ave/delta/count) on step 1000000
Bond:   1   1         1.44816e-06     9360
Angle:  1   109.47    9.84381e-05     4680
   1000000   157.60796     -2189.7929      0             -1823.1096     -15.512435    
SHAKE stats (type/ave/delta/count) on step 1010000
Bond:   1   1         1.78614e-06     9360
Angle:  1   109.47    0.000105249     4680
   1010000   154.65504     -2189.1362      0             -1829.323      -7.7261405    
SHAKE stats (type/ave/delta/count) on step 1020000
Bond:   1   1         1.20375e-06     9360
Angle:  1   109.47    0.000103067     4680
   1020000   154.70949     -2195.0496      0             -1835.1097     -18.062266    
SHAKE stats (type/ave/delta/count) on step 1030000
Bond:   1   1         1.18664e-06     9360
Angle:  1   109.47    0.000102812     4680
   1030000   155.73711     -2192.532       0             -1830.2013     -4.8670066    
SHAKE stats (type/ave/delta/count) on step 1040000
Bond:   1   1         1.28232e-06     9360
Angle:  1   109.47    0.00011773      4680
   1040000   156.67546     -2188.7444      0             -1824.2306     -18.171286    
SHAKE stats (type/ave/delta/count) on step 1050000
Bond:   1   1         1.13083e-06     9360
Angle:  1   109.47    9.13238e-05     4680
   1050000   156.31627     -2188.9782      0             -1825.3        -11.68573     
SHAKE stats (type/ave/delta/count) on step 1060000
Bond:   1   1         1.29826e-06     9360
Angle:  1   109.47    9.45092e-05     4680
   1060000   155.73646     -2185.2313      0             -1822.9021     -7.5220629    
SHAKE stats (type/ave/delta/count) on step 1070000
Bond:   1   1         1.2104e-06      9360
Angle:  1   109.47    0.000102085     4680
   1070000   156.06421     -2191.1971      0             -1828.1054     -12.804716    
SHAKE stats (type/ave/delta/count) on step 1080000
Bond:   1   1         1.30026e-06     9360
Angle:  1   109.47    9.21428e-05     4680
   1080000   154.47008     -2193.9472      0             -1834.5643     -9.4951203    
SHAKE stats (type/ave/delta/count) on step 1090000
Bond:   1   1         1.31696e-06     9360
Angle:  1   109.47    0.000100179     4680
   1090000   157.52195     -2191.2511      0             -1824.7678     -15.786436    
SHAKE stats (type/ave/delta/count) on step 1100000
Bond:   1   1         1.83853e-06     9360
Angle:  1   109.47    0.000110399     4680
   1100000   155.4885      -2201.2563      0             -1839.504      -16.256758    
SHAKE stats (type/ave/delta/count) on step 1110000
Bond:   1   1         1.08136e-06     9360
Angle:  1   109.47    9.60923e-05     4680
   1110000   156.12746     -2196.3785      0             -1833.1397     -14.294501    
SHAKE stats (type/ave/delta/count) on step 1120000
Bond:   1   1         1.21527e-06     9360
Angle:  1   109.47    9.63442e-05     4680
   1120000   158.68208     -2195.9179      0             -1826.7355     -7.6019129    
SHAKE stats (type/ave/delta/count) on step 1130000
Bond:   1   1         1.34139e-06     9360
Angle:  1   109.47    9.52356e-05     4680
   1130000   158.49822     -2186.6479      0             -1817.8933     -3.6584772    
SHAKE stats (type/ave/delta/count) on step 1140000
Bond:   1   1         1.64179e-06     9360
Angle:  1   109.47    0.000107883     4680
   1140000   155.37906     -2189.5761      0             -1828.0785     -21.541033    
SHAKE stats (type/ave/delta/count) on step 1150000
Bond:   1   1         1.28618e-06     9360
Angle:  1   109.47    9.85656e-05     4680
   1150000   154.63281     -2196.5758      0             -1836.8143     -17.16051     
SHAKE stats (type/ave/delta/count) on step 1160000
Bond:   1   1         1.27868e-06     9360
Angle:  1   109.47    9.11457e-05     4680
   1160000   155.44187     -2191.2797      0             -1829.6358     -11.505726    
SHAKE stats (type/ave/delta/count) on step 1170000
Bond:   1   1         1.20202e-06     9360
Angle:  1   109.47    0.000102002     4680
   1170000   157.75603     -2189.519       0             -1822.4912     -12.912163    
SHAKE stats (type/ave/delta/count) on step 1180000
Bond:   1   1         1.57975e-06     9360
Angle:  1   109.47    0.000108145     4680
   1180000   156.78591     -2187.7255      0             -1822.9548     -9.2641511    
SHAKE stats (type/ave/delta/count) on step 1190000
Bond:   1   1         1.27491e-06     9360
Angle:  1   109.47    9.96244e-05     4680
   1190000   156.70613     -2194.1291      0             -1829.5439     -5.8854141    
SHAKE stats (type/ave/delta/count) on step 1200000
Bond:   1   1         1.49059e-06     9360
Angle:  1   109.47    9.80333e-05     4680
   1200000   158.4258      -2200.8172      0             -1832.2311     -15.393943    
SHAKE stats (type/ave/delta/count) on step 1210000
Bond:   1   1         1.34759e-06     9360
Angle:  1   109.47    0.000106596     4680
   1210000   153.22654     -2189.6583      0             -1833.1686      1.3278239    
SHAKE stats (type/ave/delta/count) on step 1220000
Bond:   1   1         1.60446e-06     9360
Angle:  1   109.47    0.00012716      4680
   1220000   154.99846     -2195.4615      0             -1834.8493     -24.972311    
SHAKE stats (type/ave/delta/count) on step 1230000
Bond:   1   1         1.25202e-06     9360
Angle:  1   109.47    0.00011501      4680
   1230000   158.60714     -2186.0605      0             -1817.0525     -13.881529    
SHAKE stats (type/ave/delta/count) on step 1240000
Bond:   1   1         1.58945e-06     9360
Angle:  1   109.47    0.000117736     4680
   1240000   155.46855     -2189.1851      0             -1827.4792     -11.174855    
SHAKE stats (type/ave/delta/count) on step 1250000
Bond:   1   1         1.25634e-06     9360
Angle:  1   109.47    9.66549e-05     4680
   1250000   154.22646     -2184.5346      0             -1825.7185     -20.704086    
SHAKE stats (type/ave/delta/count) on step 1260000
Bond:   1   1         1.70778e-06     9360
Angle:  1   109.47    0.000113523     4680
   1260000   154.1264      -2189.0407      0             -1830.4575     -6.1647959    
SHAKE stats (type/ave/delta/count) on step 1270000
Bond:   1   1         1.31025e-06     9360
Angle:  1   109.47    9.81684e-05     4680
   1270000   152.6275      -2197.7719      0             -1842.6759     -10.44572     
SHAKE stats (type/ave/delta/count) on step 1280000
Bond:   1   1         1.32137e-06     9360
Angle:  1   109.47    0.000110959     4680
   1280000   155.93896     -2199.0641      0             -1836.2637      4.3010869    
SHAKE stats (type/ave/delta/count) on step 1290000
Bond:   1   1         1.18882e-06     9360
Angle:  1   109.47    9.75804e-05     4680
   1290000   158.2071      -2203.3162      0             -1835.239      -8.2955919    
SHAKE stats (type/ave/delta/count) on step 1300000
Bond:   1   1         1.43818e-06     9360
Angle:  1   109.47    0.000104766     4680
   1300000   157.0058      -2194.1722      0             -1828.8899      1.3204549    
SHAKE stats (type/ave/delta/count) on step 1310000
Bond:   1   1         1.24692e-06     9360
Angle:  1   109.47    0.000106144     4680
   1310000   155.93922     -2202.0345      0             -1839.2336     -18.305417    
SHAKE stats (type/ave/delta/count) on step 1320000
Bond:   1   1         1.62715e-06     9360
Angle:  1   109.47    0.000111925     4680
   1320000   155.42598     -2186.4544      0             -1824.8475     -7.4926583    
SHAKE stats (type/ave/delta/count) on step 1330000
Bond:   1   1         1.22848e-06     9360
Angle:  1   109.47    0.000104273     4680
   1330000   155.83458     -2193.5554      0             -1830.9979     -9.617147     
SHAKE stats (type/ave/delta/count) on step 1340000
Bond:   1   1         1.35534e-06     9360
Angle:  1   109.47    0.000112034     4680
   1340000   155.02953     -2183.1976      0             -1822.5131     -12.5525      
SHAKE stats (type/ave/delta/count) on step 1350000
Bond:   1   1         1.27103e-06     9360
Angle:  1   109.47    9.53566e-05     4680
   1350000   156.57865     -2192.9817      0             -1828.6932     -10.015349    
SHAKE stats (type/ave/delta/count) on step 1360000
Bond:   1   1         1.46281e-06     9360
Angle:  1   109.47    0.000103787     4680
   1360000   155.34679     -2192.9185      0             -1831.4959     -1.2360046    
SHAKE stats (type/ave/delta/count) on step 1370000
Bond:   1   1         1.34792e-06     9360
Angle:  1   109.47    9.68173e-05     4680
   1370000   154.8794      -2192.6836      0             -1832.3484     -5.2580169    
SHAKE stats (type/ave/delta/count) on step 1380000
Bond:   1   1         1.28172e-06     9360
Angle:  1   109.47    9.5098e-05      4680
   1380000   157.0467      -2191.8125      0             -1826.4349     -12.320143    
SHAKE stats (type/ave/delta/count) on step 1390000
Bond:   1   1         1.11342e-06     9360
Angle:  1   109.47    0.000100452     4680
   1390000   154.70729     -2199.0435      0             -1839.1087     -30.962383    
SHAKE stats (type/ave/delta/count) on step 1400000
Bond:   1   1         1.72481e-06     9360
Angle:  1   109.47    9.62905e-05     4680
   1400000   157.50037     -2188.1535      0             -1821.7205     -1.8481341    
SHAKE stats (type/ave/delta/count) on step 1410000
Bond:   1   1         1.29576e-06     9360
Angle:  1   109.47    9.47906e-05     4680
   1410000   156.53597     -2196.8231      0             -1832.6338     -10.39617     
SHAKE stats (type/ave/delta/count) on step 1420000
Bond:   1   1         1.39762e-06     9360
Angle:  1   109.47    9.47751e-05     4680
   1420000   153.85418     -2190.0135      0             -1832.0635     -12.588678    
SHAKE stats (type/ave/delta/count) on step 1430000
Bond:   1   1         1.37347e-06     9360
Angle:  1   109.47    0.000113941     4680
   1430000   157.30502     -2190.8785      0             -1824.9         5.0939869    
SHAKE stats (type/ave/delta/count) on step 1440000
Bond:   1   1         1.21317e-06     9360
Angle:  1   109.47    9.65497e-05     4680
   1440000   155.43608     -2196.1603      0             -1834.53       -16.238137    
SHAKE stats (type/ave/delta/count) on step 1450000
Bond:   1   1         1.30863e-06     9360
Angle:  1   109.47    0.000102798     4680
   1450000   155.21145     -2188.7119      0             -1827.6042     -24.72893     
SHAKE stats (type/ave/delta/count) on step 1460000
Bond:   1   1         1.25216e-06     9360
Angle:  1   109.47    0.000104052     4680
   1460000   156.48774     -2196.3447      0             -1832.2676     -14.572125    
SHAKE stats (type/ave/delta/count) on step 1470000
Bond:   1   1         1.22376e-06     9360
Angle:  1   109.47    0.000101834     4680
   1470000   154.29156     -2190.2112      0             -1831.2436     -11.445067    
SHAKE stats (type/ave/delta/count) on step 1480000
Bond:   1   1         1.30312e-06     9360
Angle:  1   109.47    9.59689e-05     4680
   1480000   159.18609     -2190.0204      0             -1819.6654     -13.817776    
SHAKE stats (type/ave/delta/count) on step 1490000
Bond:   1   1         1.26819e-06     9360
Angle:  1   109.47    0.000100131     4680
   1490000   156.05252     -2191.9117      0             -1828.8472     -18.337712    
SHAKE stats (type/ave/delta/count) on step 1500000
Bond:   1   1         1.14342e-06     9360
Angle:  1   109.47    9.59669e-05     4680
   1500000   156.2303      -2190.1254      0             -1826.6473      11.966214    
SHAKE stats (type/ave/delta/count) on step 1510000
Bond:   1   1         1.18483e-06     9360
Angle:  1   109.47    9.92164e-05     4680
   1510000   154.08023     -2188.0079      0             -1829.532       7.568013     
SHAKE stats (type/ave/delta/count) on step 1520000
Bond:   1   1         1.45314e-06     9360
Angle:  1   109.47    9.87689e-05     4680
   1520000   155.00708     -2189.2203      0             -1828.588      -8.9876612    
SHAKE stats (type/ave/delta/count) on step 1530000
Bond:   1   1         1.87902e-06     9360
Angle:  1   109.47    0.000118763     4680
   1530000   154.50286     -2194.583       0             -1835.1239      0.48160014   
SHAKE stats (type/ave/delta/count) on step 1540000
Bond:   1   1         1.26391e-06     9360
Angle:  1   109.47    9.8159e-05      4680
   1540000   153.08186     -2186.6351      0             -1830.482      -3.5629709    
SHAKE stats (type/ave/delta/count) on step 1550000
Bond:   1   1         1.66305e-06     9360
Angle:  1   109.47    0.000125192     4680
   1550000   154.0172      -2191.9051      0             -1833.5759     -3.3247424    
SHAKE stats (type/ave/delta/count) on step 1560000
Bond:   1   1         1.21919e-06     9360
Angle:  1   109.47    0.000105007     4680
   1560000   156.24524     -2185.7241      0             -1822.2112     -21.394018    
SHAKE stats (type/ave/delta/count) on step 1570000
Bond:   1   1         1.23085e-06     9360
Angle:  1   109.47    9.84852e-05     4680
   1570000   155.22547     -2184.1904      0             -1823.0501     -8.5406002    
SHAKE stats (type/ave/delta/count) on step 1580000
Bond:   1   1         1.20291e-06     9360
Angle:  1   109.47    9.6905e-05      4680
   1580000   155.62858     -2187.7358      0             -1825.6577      0.036666282  
SHAKE stats (type/ave/delta/count) on step 1590000
Bond:   1   1         1.21179e-06     9360
Angle:  1   109.47    0.000100409     4680
   1590000   154.93794     -2193.2486      0             -1832.7772     -23.703931    
SHAKE stats (type/ave/delta/count) on step 1600000
Bond:   1   1         1.32831e-06     9360
Angle:  1   109.47    9.97816e-05     4680
   1600000   157.20355     -2200.3937      0             -1834.6512     -9.9905908    
SHAKE stats (type/ave/delta/count) on step 1610000
Bond:   1   1         1.28046e-06     9360
Angle:  1   109.47    0.000105413     4680
   1610000   156.75432     -2197.0369      0             -1832.3396     -7.9566866    
SHAKE stats (type/ave/delta/count) on step 1620000
Bond:   1   1         1.32976e-06     9360
Angle:  1   109.47    0.000107198     4680
   1620000   157.88151     -2188.0528      0             -1820.733       4.9793232    
SHAKE stats (type/ave/delta/count) on step 1630000
Bond:   1   1         1.30899e-06     9360
Angle:  1   109.47    9.92112e-05     4680
   1630000   158.7067      -2189.8667      0             -1820.6271     -4.5994037    
SHAKE stats (type/ave/delta/count) on step 1640000
Bond:   1   1         1.59606e-06     9360
Angle:  1   109.47    0.000116582     4680
   1640000   155.30259     -2188.6986      0             -1827.3789      5.835082     
SHAKE stats (type/ave/delta/count) on step 1650000
Bond:   1   1         1.16698e-06     9360
Angle:  1   109.47    9.7071e-05      4680
   1650000   157.73919     -2195.6211      0             -1828.6325     -16.606748    
SHAKE stats (type/ave/delta/count) on step 1660000
Bond:   1   1         1.16684e-06     9360
Angle:  1   109.47    0.000101845     4680
   1660000   153.77969     -2190.3497      0             -1832.5731     -12.800394    
SHAKE stats (type/ave/delta/count) on step 1670000
Bond:   1   1         1.17867e-06     9360
Angle:  1   109.47    0.000114953     4680
   1670000   157.33649     -2192.7566      0             -1826.7048     -9.4726232    
SHAKE stats (type/ave/delta/count) on step 1680000
Bond:   1   1         1.31365e-06     9360
Angle:  1   109.47    9.45556e-05     4680
   1680000   155.31998     -2182.2772      0             -1820.917      -13.863911    
SHAKE stats (type/ave/delta/count) on step 1690000
Bond:   1   1         1.24982e-06     9360
Angle:  1   109.47    9.76878e-05     4680
   1690000   154.8155      -2190.0165      0             -1829.83       -13.962874    
SHAKE stats (type/ave/delta/count) on step 1700000
Bond:   1   1         1.32992e-06     9360
Angle:  1   109.47    9.89564e-05     4680
   1700000   155.20561     -2193.7957      0             -1832.7016     -21.103979    
SHAKE stats (type/ave/delta/count) on step 1710000
Bond:   1   1         1.40362e-06     9360
Angle:  1   109.47    0.000101008     4680
   1710000   154.86816     -2190.5237      0             -1830.2147     -8.5298011    
SHAKE stats (type/ave/delta/count) on step 1720000
Bond:   1   1         1.30704e-06     9360
Angle:  1   109.47    0.000112634     4680
   1720000   154.63733     -2195.8914      0             -1836.1194     -18.139587    
SHAKE stats (type/ave/delta/count) on step 1730000
Bond:   1   1         1.47245e-06     9360
Angle:  1   109.47    9.67855e-05     4680
   1730000   156.62178     -2187.2861      0             -1822.8971     -3.1818159    
SHAKE stats (type/ave/delta/count) on step 1740000
Bond:   1   1         1.2614e-06      9360
Angle:  1   109.47    0.000102233     4680
   1740000   156.46608     -2187.1017      0             -1823.075      -19.663452    
SHAKE stats (type/ave/delta/count) on step 1750000
Bond:   1   1         1.40184e-06     9360
Angle:  1   109.47    0.000105116     4680
   1750000   156.1629      -2190.1243      0             -1826.803       3.058394     
SHAKE stats (type/ave/delta/count) on step 1760000
Bond:   1   1         1.28853e-06     9360
Angle:  1   109.47    0.000101411     4680
   1760000   155.93286     -2197.7819      0             -1834.9958     -16.34951     
SHAKE stats (type/ave/delta/count) on step 1770000
Bond:   1   1         1.29012e-06     9360
Angle:  1   109.47    9.80274e-05     4680
   1770000   155.93722     -2193.1515      0             -1830.3552     -11.645931    
SHAKE stats (type/ave/delta/count) on step 1780000
Bond:   1   1         1.48424e-06     9360
Angle:  1   109.47    0.000109466     4680
   1780000   156.28579     -2188.041       0             -1824.4338     -9.0614485    
SHAKE stats (type/ave/delta/count) on step 1790000
Bond:   1   1         1.2758e-06      9360
Angle:  1   109.47    0.000100175     4680
   1790000   155.83545     -2186.6071      0             -1824.0476     -16.311224    
SHAKE stats (type/ave/delta/count) on step 1800000
Bond:   1   1         1.44174e-06     9360
Angle:  1   109.47    0.000100212     4680
   1800000   156.00475     -2184.6834      0             -1821.73       -15.366176    
SHAKE stats (type/ave/delta/count) on step 1810000
Bond:   1   1         1.317e-06       9360
Angle:  1   109.47    9.14945e-05     4680
   1810000   155.91509     -2181.9092      0             -1819.1644     -3.9888736    
SHAKE stats (type/ave/delta/count) on step 1820000
Bond:   1   1         1.31888e-06     9360
Angle:  1   109.47    0.000102148     4680
   1820000   156.57511     -2189.7591      0             -1825.4788     -17.879116    
SHAKE stats (type/ave/delta/count) on step 1830000
Bond:   1   1         1.40142e-06     9360
Angle:  1   109.47    0.000104002     4680
   1830000   155.53614     -2189.2279      0             -1827.3648     -1.8169062    
SHAKE stats (type/ave/delta/count) on step 1840000
Bond:   1   1         1.43468e-06     9360
Angle:  1   109.47    0.000111143     4680
   1840000   157.07422     -2193.617       0             -1828.1755      2.7846977    
SHAKE stats (type/ave/delta/count) on step 1850000
Bond:   1   1         1.33335e-06     9360
Angle:  1   109.47    0.000102584     4680
   1850000   157.67931     -2193.9059      0             -1827.0565     -19.742449    
SHAKE stats (type/ave/delta/count) on step 1860000
Bond:   1   1         1.49719e-06     9360
Angle:  1   109.47    0.000104299     4680
   1860000   157.47661     -2185.4147      0             -1819.037      -5.198171     
SHAKE stats (type/ave/delta/count) on step 1870000
Bond:   1   1         1.54024e-06     9360
Angle:  1   109.47    9.14224e-05     4680
   1870000   155.23673     -2189.5656      0             -1828.3991     -8.447619     
SHAKE stats (type/ave/delta/count) on step 1880000
Bond:   1   1         1.11891e-06     9360
Angle:  1   109.47    9.70142e-05     4680
   1880000   155.25183     -2197.5993      0             -1836.3976     -12.048488    
SHAKE stats (type/ave/delta/count) on step 1890000
Bond:   1   1         1.30918e-06     9360
Angle:  1   109.47    9.20503e-05     4680
   1890000   155.84403     -2195.2058      0             -1832.6263     -12.252732    
SHAKE stats (type/ave/delta/count) on step 1900000
Bond:   1   1         1.34287e-06     9360
Angle:  1   109.47    0.000124814     4680
   1900000   156.12144     -2193.1929      0             -1829.9681     -21.220052    
SHAKE stats (type/ave/delta/count) on step 1910000
Bond:   1   1         1.22096e-06     9360
Angle:  1   109.47    9.94815e-05     4680
   1910000   156.97346     -2196.8785      0             -1831.6714      1.9165001    
SHAKE stats (type/ave/delta/count) on step 1920000
Bond:   1   1         1.39476e-06     9360
Angle:  1   109.47    9.46842e-05     4680
   1920000   155.23748     -2190.246       0             -1829.0777     -3.9750959    
SHAKE stats (type/ave/delta/count) on step 1930000
Bond:   1   1         1.31381e-06     9360
Angle:  1   109.47    0.000101063     4680
   1930000   155.83763     -2187.0288      0             -1824.4643     -16.489874    
SHAKE stats (type/ave/delta/count) on step 1940000
Bond:   1   1         1.2251e-06      9360
Angle:  1   109.47    9.94494e-05     4680
   1940000   157.4173      -2193.7711      0             -1827.5314     -13.24759     
SHAKE stats (type/ave/delta/count) on step 1950000
Bond:   1   1         1.57789e-06     9360
Angle:  1   109.47    0.000112082     4680
   1950000   156.20306     -2191.7628      0             -1828.348      -7.3994779    
SHAKE stats (type/ave/delta/count) on step 1960000
Bond:   1   1         1.25706e-06     9360
Angle:  1   109.47    9.4429e-05      4680
   1960000   157.47656     -2188.5152      0             -1822.1376     -7.8499278    
SHAKE stats (type/ave/delta/count) on step 1970000
Bond:   1   1         1.14707e-06     9360
Angle:  1   109.47    0.0001047       4680
   1970000   156.4311      -2191.1686      0             -1827.2233     -4.9403615    
SHAKE stats (type/ave/delta/count) on step 1980000
Bond:   1   1         1.23342e-06     9360
Angle:  1   109.47    9.83141e-05     4680
   1980000   154.5463      -2191.2491      0             -1831.6889     -18.627621    
SHAKE stats (type/ave/delta/count) on step 1990000
Bond:   1   1         1.25509e-06     9360
Angle:  1   109.47    9.32435e-05     4680
   1990000   155.76135     -2193.3015      0             -1830.9144      3.4282418    
SHAKE stats (type/ave/delta/count) on step 2000000
Bond:   1   1         1.55548e-06     9360
Angle:  1   109.47    0.000101509     4680
   2000000   158.31659     -2190.9556      0             -1822.6236     -32.015916    
SHAKE stats (type/ave/delta/count) on step 2010000
Bond:   1   1         1.25267e-06     9360
Angle:  1   109.47    9.65901e-05     4680
   2010000   153.88218     -2195.0016      0             -1836.9865     -11.066673    
SHAKE stats (type/ave/delta/count) on step 2020000
Bond:   1   1         1.33809e-06     9360
Angle:  1   109.47    9.64154e-05     4680
   2020000   158.6306      -2190.0498      0             -1820.9872     -8.9275015    
SHAKE stats (type/ave/delta/count) on step 2030000
Bond:   1   1         1.50852e-06     9360
Angle:  1   109.47    0.000107194     4680
   2030000   155.71671     -2192.9879      0             -1830.7046     -19.105229    
SHAKE stats (type/ave/delta/count) on step 2040000
Bond:   1   1         1.44945e-06     9360
Angle:  1   109.47    0.000121676     4680
   2040000   156.39094     -2187.6128      0             -1823.761      -23.807316    
SHAKE stats (type/ave/delta/count) on step 2050000
Bond:   1   1         1.41477e-06     9360
Angle:  1   109.47    0.000121564     4680
   2050000   156.33544     -2194.162       0             -1830.4393     -11.88897     
SHAKE stats (type/ave/delta/count) on step 2060000
Bond:   1   1         1.38963e-06     9360
Angle:  1   109.47    0.000103605     4680
   2060000   156.19947     -2197.1077      0             -1833.7012     -27.00569     
SHAKE stats (type/ave/delta/count) on step 2070000
Bond:   1   1         1.36503e-06     9360
Angle:  1   109.47    9.68886e-05     4680
   2070000   155.91865     -2190.6132      0             -1827.8601     -14.166433    
SHAKE stats (type/ave/delta/count) on step 2080000
Bond:   1   1         1.35305e-06     9360
Angle:  1   109.47    0.000106642     4680
   2080000   155.97563     -2176.7091      0             -1813.8235     -12.184451    
SHAKE stats (type/ave/delta/count) on step 2090000
Bond:   1   1         1.34653e-06     9360
Angle:  1   109.47    9.41828e-05     4680
   2090000   155.57417     -2195.4285      0             -1833.4769     -7.8187474    
SHAKE stats (type/ave/delta/count) on step 2100000
Bond:   1   1         1.24879e-06     9360
Angle:  1   109.47    0.000100513     4680
   2100000   153.73262     -2196.3196      0             -1838.6525      5.1398273    
SHAKE stats (type/ave/delta/count) on step 2110000
Bond:   1   1         1.2551e-06      9360
Angle:  1   109.47    9.90372e-05     4680
   2110000   156.67639     -2183.1249      0             -1818.6089     -29.788863    
SHAKE stats (type/ave/delta/count) on step 2120000
Bond:   1   1         1.34907e-06     9360
Angle:  1   109.47    9.96744e-05     4680
   2120000   155.27532     -2197.8771      0             -1836.6208     -7.5926107    
SHAKE stats (type/ave/delta/count) on step 2130000
Bond:   1   1         1.36025e-06     9360
Angle:  1   109.47    0.000111897     4680
   2130000   153.03574     -2186.6954      0             -1830.6496     -12.820549    
SHAKE stats (type/ave/delta/count) on step 2140000
Bond:   1   1         1.31178e-06     9360
Angle:  1   109.47    9.78921e-05     4680
   2140000   153.76117     -2192.6042      0             -1834.8706     -4.0340208    
SHAKE stats (type/ave/delta/count) on step 2150000
Bond:   1   1         1.41317e-06     9360
Angle:  1   109.47    0.000103062     4680
   2150000   154.80712     -2194.8223      0             -1834.6553     -14.621839    
SHAKE stats (type/ave/delta/count) on step 2160000
Bond:   1   1         1.28581e-06     9360
Angle:  1   109.47    9.73662e-05     4680
   2160000   154.2904      -2192.6752      0             -1833.7104     -4.7893431    
SHAKE stats (type/ave/delta/count) on step 2170000
Bond:   1   1         1.13041e-06     9360
Angle:  1   109.47    8.78807e-05     4680
   2170000   156.57796     -2198.8536      0             -1834.5667     -7.1166252    
SHAKE stats (type/ave/delta/count) on step 2180000
Bond:   1   1         1.08391e-06     9360
Angle:  1   109.47    9.64438e-05     4680
   2180000   156.9498      -2193.0064      0             -1827.8543     -12.091535    
SHAKE stats (type/ave/delta/count) on step 2190000
Bond:   1   1         1.33805e-06     9360
Angle:  1   109.47    0.00010313      4680
   2190000   156.67661     -2192.0323      0             -1827.5158     -12.499299    
SHAKE stats (type/ave/delta/count) on step 2200000
Bond:   1   1         1.1574e-06      9360
Angle:  1   109.47    0.000102972     4680
   2200000   157.80538     -2188.3686      0             -1821.2259     -5.1190859    
SHAKE stats (type/ave/delta/count) on step 2210000
Bond:   1   1         1.24326e-06     9360
Angle:  1   109.47    0.000100343     4680
   2210000   157.04045     -2190.1484      0             -1824.7854     -7.0523111    
SHAKE stats (type/ave/delta/count) on step 2220000
Bond:   1   1         1.30494e-06     9360
Angle:  1   109.47    0.000107068     4680
   2220000   157.80361     -2191.981       0             -1824.8425     -1.7178216    
SHAKE stats (type/ave/delta/count) on step 2230000
Bond:   1   1         1.18592e-06     9360
Angle:  1   109.47    9.10809e-05     4680
   2230000   154.83119     -2190.9386      0             -1830.7156     -29.713717    
SHAKE stats (type/ave/delta/count) on step 2240000
Bond:   1   1         1.53579e-06     9360
Angle:  1   109.47    0.00010904      4680
   2240000   155.8436      -2185.3303      0             -1822.7518     -12.459802    
SHAKE stats (type/ave/delta/count) on step 2250000
Bond:   1   1         1.18961e-06     9360
Angle:  1   109.47    0.000108174     4680
   2250000   156.6958      -2188.3063      0             -1823.7451     -6.3266489    
SHAKE stats (type/ave/delta/count) on step 2260000
Bond:   1   1         1.5378e-06      9360
Angle:  1   109.47    0.000103595     4680
   2260000   155.54275     -2181.9166      0             -1820.0381     -18.874823    
SHAKE stats (type/ave/delta/count) on step 2270000
Bond:   1   1         1.22039e-06     9360
Angle:  1   109.47    9.39588e-05     4680
   2270000   157.71479     -2190.4685      0             -1823.5366     -18.087642    
SHAKE stats (type/ave/delta/count) on step 2280000
Bond:   1   1         1.36481e-06     9360
Angle:  1   109.47    9.85863e-05     4680
   2280000   157.85167     -2180.7731      0             -1813.5228     -7.1946188    
SHAKE stats (type/ave/delta/count) on step 2290000
Bond:   1   1         1.27307e-06     9360
Angle:  1   109.47    0.000129773     4680
   2290000   155.74778     -2191.7903      0             -1829.4348     -4.2376809    
SHAKE stats (type/ave/delta/count) on step 2300000
Bond:   1   1         1.55446e-06     9360
Angle:  1   109.47    0.000103038     4680
   2300000   153.37377     -2187.5723      0             -1830.74       -25.999194    
SHAKE stats (type/ave/delta/count) on step 2310000
Bond:   1   1         1.17483e-06     9360
Angle:  1   109.47    0.000116507     4680
   2310000   157.46601     -2188.9146      0             -1822.5615      4.9926435    
SHAKE stats (type/ave/delta/count) on step 2320000
Bond:   1   1         1.28143e-06     9360
Angle:  1   109.47    0.000103921     4680
   2320000   157.05991     -2187.49        0             -1822.0818     -16.608871    
SHAKE stats (type/ave/delta/count) on step 2330000
Bond:   1   1         1.54171e-06     9360
Angle:  1   109.47    9.40876e-05     4680
   2330000   155.89506     -2186.2416      0             -1823.5434      4.2577461    
SHAKE stats (type/ave/delta/count) on step 2340000
Bond:   1   1         1.11271e-06     9360
Angle:  1   109.47    9.72543e-05     4680
   2340000   151.75293     -2186.7852      0             -1833.7239     -23.547622    
SHAKE stats (type/ave/delta/count) on step 2350000
Bond:   1   1         1.17996e-06     9360
Angle:  1   109.47    9.95448e-05     4680
   2350000   154.99043     -2195.3421      0             -1834.7486     -18.070754    
SHAKE stats (type/ave/delta/count) on step 2360000
Bond:   1   1         1.42006e-06     9360
Angle:  1   109.47    9.4051e-05      4680
   2360000   158.00038     -2184.5809      0             -1816.9845     -6.1536227    
SHAKE stats (type/ave/delta/count) on step 2370000
Bond:   1   1         1.32577e-06     9360
Angle:  1   109.47    0.000101643     4680
   2370000   156.09332     -2194.5278      0             -1831.3684     -2.5692315    
SHAKE stats (type/ave/delta/count) on step 2380000
Bond:   1   1         1.67132e-06     9360
Angle:  1   109.47    0.00012756      4680
   2380000   154.11211     -2190.2832      0             -1831.7332     -4.5939914    
SHAKE stats (type/ave/delta/count) on step 2390000
Bond:   1   1         1.32213e-06     9360
Angle:  1   109.47    0.000108442     4680
   2390000   154.43626     -2190.4654      0             -1831.1612     -12.535391    
SHAKE stats (type/ave/delta/count) on step 2400000
Bond:   1   1         1.14667e-06     9360
Angle:  1   109.47    9.61807e-05     4680
   2400000   157.64063     -2187.863       0             -1821.1037     -7.0788578    
SHAKE stats (type/ave/delta/count) on step 2410000
Bond:   1   1         1.40781e-06     9360
Angle:  1   109.47    0.000103428     4680
   2410000   156.49343     -2185.136       0             -1821.0457      1.6651751    
SHAKE stats (type/ave/delta/count) on step 2420000
Bond:   1   1         1.27863e-06     9360
Angle:  1   109.47    9.52567e-05     4680
   2420000   158.17692     -2192.1131      0             -1824.1061     -4.7031547    
SHAKE stats (type/ave/delta/count) on step 2430000
Bond:   1   1         1.54912e-06     9360
Angle:  1   109.47    9.90431e-05     4680
   2430000   154.90312     -2190.7556      0             -1830.3653     -13.529556    
SHAKE stats (type/ave/delta/count) on step 2440000
Bond:   1   1         1.19871e-06     9360
Angle:  1   109.47    9.99887e-05     4680
   2440000   155.21343     -2184.442       0             -1823.3297     -6.1413923    
SHAKE stats (type/ave/delta/count) on step 2450000
Bond:   1   1         1.36388e-06     9360
Angle:  1   109.47    0.000108948     4680
   2450000   157.00343     -2188.2909      0             -1823.014      -0.54331608   
SHAKE stats (type/ave/delta/count) on step 2460000
Bond:   1   1         1.70141e-06     9360
Angle:  1   109.47    0.00010311      4680
   2460000   157.83627     -2192.3149      0             -1825.1003     -24.197811    
SHAKE stats (type/ave/delta/count) on step 2470000
Bond:   1   1         1.28784e-06     9360
Angle:  1   109.47    0.000100877     4680
   2470000   157.41919     -2185.0337      0             -1818.7895     -5.9233172    
SHAKE stats (type/ave/delta/count) on step 2480000
Bond:   1   1         1.23005e-06     9360
Angle:  1   109.47    9.21223e-05     4680
   2480000   156.80413     -2197.246       0             -1832.4328     -14.523561    
SHAKE stats (type/ave/delta/count) on step 2490000
Bond:   1   1         1.17964e-06     9360
Angle:  1   109.47    0.000113294     4680
   2490000   156.34256     -2194.1867      0             -1830.4474     -8.4958649    
SHAKE stats (type/ave/delta/count) on step 2500000
Bond:   1   1         1.34747e-06     9360
Angle:  1   109.47    0.000120075     4680
   2500000   158.9558      -2182.5069      0             -1812.6878     -10.555367    
SHAKE stats (type/ave/delta/count) on step 2510000
Bond:   1   1         1.27679e-06     9360
Angle:  1   109.47    9.96916e-05     4680
   2510000   158.71391     -2194.0553      0             -1824.7989     -8.9744173    
SHAKE stats (type/ave/delta/count) on step 2520000
Bond:   1   1         1.27974e-06     9360
Angle:  1   109.47    9.52903e-05     4680
   2520000   154.83568     -2189.3394      0             -1829.1059     -6.7287959    
SHAKE stats (type/ave/delta/count) on step 2530000
Bond:   1   1         1.20165e-06     9360
Angle:  1   109.47    9.91247e-05     4680
   2530000   155.77443     -2187.2491      0             -1824.8316     -12.056591    
SHAKE stats (type/ave/delta/count) on step 2540000
Bond:   1   1         1.65757e-06     9360
Angle:  1   109.47    0.000129311     4680
   2540000   155.21189     -2190.0195      0             -1828.9108     -7.1291945    
SHAKE stats (type/ave/delta/count) on step 2550000
Bond:   1   1         1.11371e-06     9360
Angle:  1   109.47    0.000102476     4680
   2550000   153.30369     -2184.3715      0             -1827.7023     -13.940884    
SHAKE stats (type/ave/delta/count) on step 2560000
Bond:   1   1         1.29233e-06     9360
Angle:  1   109.47    9.19345e-05     4680
   2560000   155.87378     -2178.4197      0             -1815.771      -11.254867    
SHAKE stats (type/ave/delta/count) on step 2570000
Bond:   1   1         1.21388e-06     9360
Angle:  1   109.47    9.18008e-05     4680
   2570000   157.20195     -2190.0123      0             -1824.2736     -7.038571     
SHAKE stats (type/ave/delta/count) on step 2580000
Bond:   1   1         1.45816e-06     9360
Angle:  1   109.47    0.000102437     4680
   2580000   156.89898     -2187.9384      0             -1822.9046     -6.7149002    
SHAKE stats (type/ave/delta/count) on step 2590000
Bond:   1   1         1.20909e-06     9360
Angle:  1   109.47    9.97793e-05     4680
   2590000   156.36233     -2186.661       0             -1822.8757     -15.542999    
SHAKE stats (type/ave/delta/count) on step 2600000
Bond:   1   1         1.37941e-06     9360
Angle:  1   109.47    0.000104955     4680
   2600000   157.94612     -2190.3694      0             -1822.8993      2.2329639    
SHAKE stats (type/ave/delta/count) on step 2610000
Bond:   1   1         1.14785e-06     9360
Angle:  1   109.47    9.83728e-05     4680
   2610000   157.59174     -2185.5224      0             -1818.8768     -5.1193799    
SHAKE stats (type/ave/delta/count) on step 2620000
Bond:   1   1         1.28597e-06     9360
Angle:  1   109.47    9.98424e-05     4680
   2620000   156.61968     -2187.7915      0             -1823.4074     -5.5633314    
SHAKE stats (type/ave/delta/count) on step 2630000
Bond:   1   1         1.47835e-06     9360
Angle:  1   109.47    0.00010567      4680
   2630000   156.27736     -2186.3778      0             -1822.7902     -2.8898493    
SHAKE stats (type/ave/delta/count) on step 2640000
Bond:   1   1         1.18272e-06     9360
Angle:  1   109.47    9.38296e-05     4680
   2640000   155.63377     -2188.7725      0             -1826.6822     -8.4618204    
SHAKE stats (type/ave/delta/count) on step 2650000
Bond:   1   1         1.44749e-06     9360
Angle:  1   109.47    0.000117711     4680
   2650000   156.3147      -2190.0903      0             -1826.4158     -15.361899    
SHAKE stats (type/ave/delta/count) on step 2660000
Bond:   1   1         1.45284e-06     9360
Angle:  1   109.47    0.000104005     4680
   2660000   156.50738     -2189.8324      0             -1825.7097     -1.8535298    
SHAKE stats (type/ave/delta/count) on step 2670000
Bond:   1   1         1.46417e-06     9360
Angle:  1   109.47    9.73767e-05     4680
   2670000   157.06991     -2184.6318      0             -1819.2002     -16.714662    
SHAKE stats (type/ave/delta/count) on step 2680000
Bond:   1   1         1.11975e-06     9360
Angle:  1   109.47    9.9585e-05      4680
   2680000   156.25804     -2191.1289      0             -1827.5862      6.0727329    
SHAKE stats (type/ave/delta/count) on step 2690000
Bond:   1   1         1.58794e-06     9360
Angle:  1   109.47    0.000104551     4680
   2690000   154.1729      -2189.7646      0             -1831.0731     -7.5281187    
SHAKE stats (type/ave/delta/count) on step 2700000
Bond:   1   1         1.23049e-06     9360
Angle:  1   109.47    0.000108048     4680
   2700000   155.87968     -2189.8862      0             -1827.2238     -4.9107634    
SHAKE stats (type/ave/delta/count) on step 2710000
Bond:   1   1         1.32871e-06     9360
Angle:  1   109.47    0.000129303     4680
   2710000   157.60026     -2190.5523      0             -1823.8869     -3.3211561    
SHAKE stats (type/ave/delta/count) on step 2720000
Bond:   1   1         1.43106e-06     9360
Angle:  1   109.47    0.000111819     4680
   2720000   154.75646     -2195.771       0             -1835.7218     -12.474957    
SHAKE stats (type/ave/delta/count) on step 2730000
Bond:   1   1         1.21145e-06     9360
Angle:  1   109.47    9.31031e-05     4680
   2730000   154.81058     -2187.851       0             -1827.6759      2.4599055    
SHAKE stats (type/ave/delta/count) on step 2740000
Bond:   1   1         1.34835e-06     9360
Angle:  1   109.47    9.14557e-05     4680
   2740000   155.50257     -2191.771       0             -1829.986      -5.6039382    
SHAKE stats (type/ave/delta/count) on step 2750000
Bond:   1   1         1.30524e-06     9360
Angle:  1   109.47    9.23131e-05     4680
   2750000   158.30275     -2192.3016      0             -1824.0018     -10.380451    
SHAKE stats (type/ave/delta/count) on step 2760000
Bond:   1   1         1.321e-06       9360
Angle:  1   109.47    9.74682e-05     4680
   2760000   156.30814     -2189.3387      0             -1825.6795     -18.343101    
SHAKE stats (type/ave/delta/count) on step 2770000
Bond:   1   1         1.19587e-06     9360
Angle:  1   109.47    9.47608e-05     4680
   2770000   156.77029     -2194.8556      0             -1830.1211     -16.898197    
SHAKE stats (type/ave/delta/count) on step 2780000
Bond:   1   1         1.29997e-06     9360
Angle:  1   109.47    9.89962e-05     4680
   2780000   155.3282      -2187.4602      0             -1826.0808     -5.1504206    
SHAKE stats (type/ave/delta/count) on step 2790000
Bond:   1   1         1.50946e-06     9360
Angle:  1   109.47    9.79675e-05     4680
   2790000   155.55237     -2185.8113      0             -1823.9104     -20.248047    
SHAKE stats (type/ave/delta/count) on step 2800000
Bond:   1   1         1.34351e-06     9360
Angle:  1   109.47    0.000107337     4680
   2800000   155.89969     -2187.4806      0             -1824.7717     -7.8955513    
SHAKE stats (type/ave/delta/count) on step 2810000
Bond:   1   1         1.29125e-06     9360
Angle:  1   109.47    0.000118329     4680
   2810000   155.22933     -2188.6756      0             -1827.5263     -7.0882576    
SHAKE stats (type/ave/delta/count) on step 2820000
Bond:   1   1         1.26709e-06     9360
Angle:  1   109.47    0.000110563     4680
   2820000   157.0403      -2186.9134      0             -1821.5508     -7.1962997    
SHAKE stats (type/ave/delta/count) on step 2830000
Bond:   1   1         1.16681e-06     9360
Angle:  1   109.47    0.000103668     4680
   2830000   154.30867     -2201.7064      0             -1842.699      -12.216266    
SHAKE stats (type/ave/delta/count) on step 2840000
Bond:   1   1         1.2753e-06      9360
Angle:  1   109.47    0.000105041     4680
   2840000   154.978       -2181.6299      0             -1821.0653     -6.479222     
SHAKE stats (type/ave/delta/count) on step 2850000
Bond:   1   1         1.76803e-06     9360
Angle:  1   109.47    9.45762e-05     4680
   2850000   154.74238     -2184.3123      0             -1824.2959     -14.530897    
SHAKE stats (type/ave/delta/count) on step 2860000
Bond:   1   1         1.64128e-06     9360
Angle:  1   109.47    0.000102705     4680
   2860000   153.5855      -2202.6546      0             -1845.3297     -32.219912    
SHAKE stats (type/ave/delta/count) on step 2870000
Bond:   1   1         1.35487e-06     9360
Angle:  1   109.47    0.00012772      4680
   2870000   156.72868     -2193.345       0             -1828.7074     -4.783951     
SHAKE stats (type/ave/delta/count) on step 2880000
Bond:   1   1         1.30595e-06     9360
Angle:  1   109.47    0.000107961     4680
   2880000   154.50565     -2190.3541      0             -1830.8884     -9.5630849    
SHAKE stats (type/ave/delta/count) on step 2890000
Bond:   1   1         1.63772e-06     9360
Angle:  1   109.47    0.000105223     4680
   2890000   154.0143      -2188.1679      0             -1829.8454     -17.453844    
SHAKE stats (type/ave/delta/count) on step 2900000
Bond:   1   1         1.45452e-06     9360
Angle:  1   109.47    0.000103319     4680
   2900000   154.32571     -2189.2586      0             -1830.2116      8.2944265    
SHAKE stats (type/ave/delta/count) on step 2910000
Bond:   1   1         1.21926e-06     9360
Angle:  1   109.47    9.56588e-05     4680
   2910000   155.97184     -2189.3356      0             -1826.4588     -0.49439745   
SHAKE stats (type/ave/delta/count) on step 2920000
Bond:   1   1         1.21329e-06     9360
Angle:  1   109.47    0.000112773     4680
   2920000   156.32368     -2192.4588      0             -1828.7634     -5.2059679    
SHAKE stats (type/ave/delta/count) on step 2930000
Bond:   1   1         1.50175e-06     9360
Angle:  1   109.47    9.78217e-05     4680
   2930000   156.1276      -2190.0278      0             -1826.7886     -6.1894235    
SHAKE stats (type/ave/delta/count) on step 2940000
Bond:   1   1         1.53674e-06     9360
Angle:  1   109.47    0.000119474     4680
   2940000   154.83512     -2192.3105      0             -1832.0783     -9.5563941    
SHAKE stats (type/ave/delta/count) on step 2950000
Bond:   1   1         1.53463e-06     9360
Angle:  1   109.47    0.000100926     4680
   2950000   155.30287     -2191.6031      0             -1830.2827     -11.127344    
SHAKE stats (type/ave/delta/count) on step 2960000
Bond:   1   1         1.23876e-06     9360
Angle:  1   109.47    0.000107126     4680
   2960000   155.07635     -2197.8226      0             -1837.0292     -5.7744166    
SHAKE stats (type/ave/delta/count) on step 2970000
Bond:   1   1         1.39203e-06     9360
Angle:  1   109.47    9.42109e-05     4680
   2970000   155.46747     -2196.5759      0             -1834.8725     -13.703215    
SHAKE stats (type/ave/delta/count) on step 2980000
Bond:   1   1         1.35167e-06     9360
Angle:  1   109.47    0.000102553     4680
   2980000   156.68764     -2187.6511      0             -1823.1089     -15.743574    
SHAKE stats (type/ave/delta/count) on step 2990000
Bond:   1   1         1.24742e-06     9360
Angle:  1   109.47    9.18835e-05     4680
   2990000   157.19418     -2190.513       0             -1824.7924     -15.30479     
SHAKE stats (type/ave/delta/count) on step 3000000
Bond:   1   1         1.36664e-06     9360
Angle:  1   109.47    0.00010309      4680
   3000000   155.56277     -2183.1522      0             -1821.2271     -21.993633    
SHAKE stats (type/ave/delta/count) on step 3010000
Bond:   1   1         1.81426e-06     9360
Angle:  1   109.47    0.000118784     4680
   3010000   155.3812      -2196.6856      0             -1835.1829     -7.7080919    
SHAKE stats (type/ave/delta/count) on step 3020000
Bond:   1   1         1.48369e-06     9360
Angle:  1   109.47    0.00014769      4680
   3020000   157.09581     -2183.2997      0             -1817.808      -9.9730726    
SHAKE stats (type/ave/delta/count) on step 3030000
Bond:   1   1         1.4983e-06      9360
Angle:  1   109.47    0.000104028     4680
   3030000   156.43276     -2196.0698      0             -1832.1207      0.51236641   
SHAKE stats (type/ave/delta/count) on step 3040000
Bond:   1   1         1.25138e-06     9360
Angle:  1   109.47    0.000102267     4680
   3040000   155.61248     -2188.4353      0             -1826.3946      1.5276111    
SHAKE stats (type/ave/delta/count) on step 3050000
Bond:   1   1         1.2675e-06      9360
Angle:  1   109.47    9.83113e-05     4680
   3050000   154.81738     -2186.4112      0             -1826.2203     -22.221387    
SHAKE stats (type/ave/delta/count) on step 3060000
Bond:   1   1         1.15804e-06     9360
Angle:  1   109.47    8.92418e-05     4680
   3060000   155.33804     -2193.3385      0             -1831.9363     -5.8977182    
SHAKE stats (type/ave/delta/count) on step 3070000
Bond:   1   1         1.14251e-06     9360
Angle:  1   109.47    0.000134669     4680
   3070000   156.97661     -2198.2596      0             -1833.0452     -19.574353    
SHAKE stats (type/ave/delta/count) on step 3080000
Bond:   1   1         1.21452e-06     9360
Angle:  1   109.47    9.52504e-05     4680
   3080000   157.50092     -2194.6103      0             -1828.176      -16.73019     
SHAKE stats (type/ave/delta/count) on step 3090000
Bond:   1   1         1.25641e-06     9360
Angle:  1   109.47    9.31373e-05     4680
   3090000   156.32973     -2192.9367      0             -1829.2272     -20.673059    
SHAKE stats (type/ave/delta/count) on step 3100000
Bond:   1   1         1.53601e-06     9360
Angle:  1   109.47    0.000113761     4680
   3100000   155.63779     -2186.6444      0             -1824.5448     -26.612472    
SHAKE stats (type/ave/delta/count) on step 3110000
Bond:   1   1         1.66019e-06     9360
Angle:  1   109.47    9.67037e-05     4680
   3110000   156.12658     -2188.3276      0             -1825.0907     -3.1660016    
SHAKE stats (type/ave/delta/count) on step 3120000
Bond:   1   1         1.25517e-06     9360
Angle:  1   109.47    0.000104007     4680
   3120000   157.04019     -2197.4666      0             -1832.1042     -19.937492    
SHAKE stats (type/ave/delta/count) on step 3130000
Bond:   1   1         1.12644e-06     9360
Angle:  1   109.47    0.000106046     4680
   3130000   156.64897     -2184.5169      0             -1820.0648     -6.4067628    
SHAKE stats (type/ave/delta/count) on step 3140000
Bond:   1   1         1.45537e-06     9360
Angle:  1   109.47    0.00010534      4680
   3140000   155.78009     -2190.3854      0             -1827.9547     -29.312426    
SHAKE stats (type/ave/delta/count) on step 3150000
Bond:   1   1         1.22873e-06     9360
Angle:  1   109.47    9.35381e-05     4680
   3150000   158.75142     -2191.5712      0             -1822.2275     -9.0496704    
SHAKE stats (type/ave/delta/count) on step 3160000
Bond:   1   1         1.29551e-06     9360
Angle:  1   109.47    0.00011803      4680
   3160000   156.09797     -2185.717       0             -1822.5467     -18.401518    
SHAKE stats (type/ave/delta/count) on step 3170000
Bond:   1   1         1.30599e-06     9360
Angle:  1   109.47    9.17551e-05     4680
   3170000   155.89617     -2202.3219      0             -1839.6211     -11.576823    
SHAKE stats (type/ave/delta/count) on step 3180000
Bond:   1   1         1.43951e-06     9360
Angle:  1   109.47    9.81655e-05     4680
   3180000   157.92233     -2193.9236      0             -1826.5088      9.8312139    
SHAKE stats (type/ave/delta/count) on step 3190000
Bond:   1   1         1.66872e-06     9360
Angle:  1   109.47    0.000131626     4680
   3190000   155.89899     -2193.0011      0             -1830.2938     -9.9989516    
SHAKE stats (type/ave/delta/count) on step 3200000
Bond:   1   1         1.40061e-06     9360
Angle:  1   109.47    9.64283e-05     4680
   3200000   156.85917     -2190.9147      0             -1825.9735     -6.2881802    
SHAKE stats (type/ave/delta/count) on step 3210000
Bond:   1   1         1.2219e-06      9360
Angle:  1   109.47    9.36676e-05     4680
   3210000   153.42802     -2193.2556      0             -1836.2971     -2.2354996    
SHAKE stats (type/ave/delta/count) on step 3220000
Bond:   1   1         1.31704e-06     9360
Angle:  1   109.47    0.000128079     4680
   3220000   156.6254      -2190.9653      0             -1826.568      -12.345585    
SHAKE stats (type/ave/delta/count) on step 3230000
Bond:   1   1         1.22842e-06     9360
Angle:  1   109.47    0.000100312     4680
   3230000   158.13526     -2193.8532      0             -1825.9431     -7.7479902    
SHAKE stats (type/ave/delta/count) on step 3240000
Bond:   1   1         1.14437e-06     9360
Angle:  1   109.47    0.000113607     4680
   3240000   154.01099     -2192.3431      0             -1834.0283      0.47808606   
SHAKE stats (type/ave/delta/count) on step 3250000
Bond:   1   1         1.514e-06       9360
Angle:  1   109.47    0.000100019     4680
   3250000   157.47955     -2191.639       0             -1825.2544     -8.3341135    
SHAKE stats (type/ave/delta/count) on step 3260000
Bond:   1   1         1.20796e-06     9360
Angle:  1   109.47    0.000101717     4680
   3260000   155.45504     -2186.1683      0             -1824.4938     -17.890602    
SHAKE stats (type/ave/delta/count) on step 3270000
Bond:   1   1         1.41414e-06     9360
Angle:  1   109.47    0.000104335     4680
   3270000   155.33796     -2193.7746      0             -1832.3725     -13.692044    
SHAKE stats (type/ave/delta/count) on step 3280000
Bond:   1   1         1.69672e-06     9360
Angle:  1   109.47    0.000125337     4680
   3280000   157.34806     -2194.8452      0             -1828.7665     -1.5192404    
SHAKE stats (type/ave/delta/count) on step 3290000
Bond:   1   1         1.37179e-06     9360
Angle:  1   109.47    0.000100377     4680
   3290000   154.40032     -2186.1085      0             -1826.8879     -6.1870189    
SHAKE stats (type/ave/delta/count) on step 3300000
Bond:   1   1         1.47655e-06     9360
Angle:  1   109.47    9.81817e-05     4680
   3300000   156.40632     -2186.1739      0             -1822.2862     -17.861715    
SHAKE stats (type/ave/delta/count) on step 3310000
Bond:   1   1         1.48094e-06     9360
Angle:  1   109.47    0.000107479     4680
   3310000   155.6642      -2192.2882      0             -1830.1271     -7.3396371    
SHAKE stats (type/ave/delta/count) on step 3320000
Bond:   1   1         1.28098e-06     9360
Angle:  1   109.47    9.26153e-05     4680
   3320000   154.98727     -2196.1458      0             -1835.5596     -4.0061775    
SHAKE stats (type/ave/delta/count) on step 3330000
Bond:   1   1         1.42424e-06     9360
Angle:  1   109.47    0.000104499     4680
   3330000   155.59986     -2188.517       0             -1826.5057     -17.467615    
SHAKE stats (type/ave/delta/count) on step 3340000
Bond:   1   1         1.1538e-06      9360
Angle:  1   109.47    0.000105168     4680
   3340000   154.47015     -2190.5869      0             -1831.2039     -10.308146    
SHAKE stats (type/ave/delta/count) on step 3350000
Bond:   1   1         1.24621e-06     9360
Angle:  1   109.47    9.41988e-05     4680
   3350000   155.51221     -2185.9464      0             -1824.139      -8.2470564    
SHAKE stats (type/ave/delta/count) on step 3360000
Bond:   1   1         1.15786e-06     9360
Angle:  1   109.47    0.000105957     4680
   3360000   157.68822     -2189.1013      0             -1822.2313     -10.164713    
SHAKE stats (type/ave/delta/count) on step 3370000
Bond:   1   1         1.72759e-06     9360
Angle:  1   109.47    0.000129857     4680
   3370000   156.39424     -2185.2363      0             -1821.3767     -7.4317634    
SHAKE stats (type/ave/delta/count) on step 3380000
Bond:   1   1         1.2344e-06      9360
Angle:  1   109.47    0.000100688     4680
   3380000   153.99907     -2191.2111      0             -1832.9241     -20.633382    
SHAKE stats (type/ave/delta/count) on step 3390000
Bond:   1   1         1.80025e-06     9360
Angle:  1   109.47    0.000138272     4680
   3390000   157.48616     -2191.6264      0             -1825.2264     -9.5469945    
SHAKE stats (type/ave/delta/count) on step 3400000
Bond:   1   1         1.14201e-06     9360
Angle:  1   109.47    9.56692e-05     4680
   3400000   155.36815     -2190.6988      0             -1829.2265     -37.160069    
SHAKE stats (type/ave/delta/count) on step 3410000
Bond:   1   1         1.44787e-06     9360
Angle:  1   109.47    0.000109507     4680
   3410000   156.91123     -2184.0294      0             -1818.9671     -11.265678    
SHAKE stats (type/ave/delta/count) on step 3420000
Bond:   1   1         1.21326e-06     9360
Angle:  1   109.47    9.45959e-05     4680
   3420000   154.59217     -2188.8602      0             -1829.1933     -7.94447      
SHAKE stats (type/ave/delta/count) on step 3430000
Bond:   1   1         1.68914e-06     9360
Angle:  1   109.47    0.000110259     4680
   3430000   157.03783     -2193.0597      0             -1827.7028      1.4640088    
SHAKE stats (type/ave/delta/count) on step 3440000
Bond:   1   1         1.62106e-06     9360
Angle:  1   109.47    0.000103438     4680
   3440000   156.50433     -2189.4941      0             -1825.3784     -8.4458277    
SHAKE stats (type/ave/delta/count) on step 3450000
Bond:   1   1         1.34493e-06     9360
Angle:  1   109.47    0.000100363     4680
   3450000   156.63838     -2193.0937      0             -1828.6661     -10.031004    
SHAKE stats (type/ave/delta/count) on step 3460000
Bond:   1   1         2.23373e-06     9360
Angle:  1   109.47    0.000129582     4680
   3460000   158.31554     -2191.1107      0             -1822.7811     -24.25948     
SHAKE stats (type/ave/delta/count) on step 3470000
Bond:   1   1         1.2097e-06      9360
Angle:  1   109.47    9.78061e-05     4680
   3470000   156.42541     -2195.737       0             -1831.8049     -34.136641    
SHAKE stats (type/ave/delta/count) on step 3480000
Bond:   1   1         1.4647e-06      9360
Angle:  1   109.47    0.000118725     4680
   3480000   155.64721     -2188.962       0             -1826.8405     -8.350824     
SHAKE stats (type/ave/delta/count) on step 3490000
Bond:   1   1         1.37463e-06     9360
Angle:  1   109.47    0.000107428     4680
   3490000   155.47926     -2195.4051      0             -1833.6743     -3.1575261    
SHAKE stats (type/ave/delta/count) on step 3500000
Bond:   1   1         1.12967e-06     9360
Angle:  1   109.47    9.47275e-05     4680
   3500000   155.07818     -2188.844       0             -1828.0463     -10.077487    
SHAKE stats (type/ave/delta/count) on step 3510000
Bond:   1   1         1.28854e-06     9360
Angle:  1   109.47    0.000109536     4680
   3510000   154.54817     -2191.7457      0             -1832.1811     -30.558956    
SHAKE stats (type/ave/delta/count) on step 3520000
Bond:   1   1         1.39244e-06     9360
Angle:  1   109.47    9.93586e-05     4680
   3520000   155.47615     -2180.8696      0             -1819.146      -2.2022291    
SHAKE stats (type/ave/delta/count) on step 3530000
Bond:   1   1         1.47442e-06     9360
Angle:  1   109.47    0.000101425     4680
   3530000   157.49573     -2190.7976      0             -1824.3754     -6.032051     
SHAKE stats (type/ave/delta/count) on step 3540000
Bond:   1   1         1.56145e-06     9360
Angle:  1   109.47    0.000119896     4680
   3540000   157.35369     -2193.074       0             -1826.9822     -14.678557    
SHAKE stats (type/ave/delta/count) on step 3550000
Bond:   1   1         1.25376e-06     9360
Angle:  1   109.47    0.000122965     4680
   3550000   156.30672     -2201.1971      0             -1837.5412     -12.389102    
SHAKE stats (type/ave/delta/count) on step 3560000
Bond:   1   1         1.32314e-06     9360
Angle:  1   109.47    0.000102058     4680
   3560000   155.22094     -2204.7963      0             -1843.6665     -7.1472034    
SHAKE stats (type/ave/delta/count) on step 3570000
Bond:   1   1         1.12409e-06     9360
Angle:  1   109.47    0.000103608     4680
   3570000   155.80854     -2194.2802      0             -1831.7833     -3.8430116    
SHAKE stats (type/ave/delta/count) on step 3580000
Bond:   1   1         1.23511e-06     9360
Angle:  1   109.47    0.00010999      4680
   3580000   153.23549     -2184.8323      0             -1828.3217     -14.495161    
SHAKE stats (type/ave/delta/count) on step 3590000
Bond:   1   1         1.2304e-06      9360
Angle:  1   109.47    9.98886e-05     4680
   3590000   157.07409     -2193.7055      0             -1828.2642     -18.601947    
SHAKE stats (type/ave/delta/count) on step 3600000
Bond:   1   1         1.54337e-06     9360
Angle:  1   109.47    9.33111e-05     4680
   3600000   158.15952     -2182.6221      0             -1814.6556     -7.5065475    
SHAKE stats (type/ave/delta/count) on step 3610000
Bond:   1   1         1.70292e-06     9360
Angle:  1   109.47    0.000108149     4680
   3610000   156.02956     -2191.4048      0             -1828.3937     -12.431404    
SHAKE stats (type/ave/delta/count) on step 3620000
Bond:   1   1         1.37014e-06     9360
Angle:  1   109.47    9.62855e-05     4680
   3620000   155.69543     -2197.0054      0             -1834.7717      6.1076367    
SHAKE stats (type/ave/delta/count) on step 3630000
Bond:   1   1         1.23341e-06     9360
Angle:  1   109.47    9.4434e-05      4680
   3630000   155.52948     -2191.9456      0             -1830.098      -3.9623818    
SHAKE stats (type/ave/delta/count) on step 3640000
Bond:   1   1         1.49036e-06     9360
Angle:  1   109.47    9.6066e-05      4680
   3640000   155.91923     -2192.3232      0             -1829.5688     -14.479204    
SHAKE stats (type/ave/delta/count) on step 3650000
Bond:   1   1         1.20081e-06     9360
Angle:  1   109.47    9.4543e-05      4680
   3650000   154.11573     -2197.9039      0             -1839.3454     -21.697886    
SHAKE stats (type/ave/delta/count) on step 3660000
Bond:   1   1         1.45808e-06     9360
Angle:  1   109.47    0.000105037     4680
   3660000   155.64879     -2188.8714      0             -1826.7462     -2.261471     
SHAKE stats (type/ave/delta/count) on step 3670000
Bond:   1   1         1.24749e-06     9360
Angle:  1   109.47    0.000108534     4680
   3670000   154.64463     -2192.9637      0             -1833.1748     -13.508108    
SHAKE stats (type/ave/delta/count) on step 3680000
Bond:   1   1         1.51404e-06     9360
Angle:  1   109.47    0.000110375     4680
   3680000   158.10173     -2190.8672      0             -1823.0351     -7.0500901    
SHAKE stats (type/ave/delta/count) on step 3690000
Bond:   1   1         1.23536e-06     9360
Angle:  1   109.47    9.3902e-05      4680
   3690000   157.9398      -2190.2251      0             -1822.7697      1.5346333    
SHAKE stats (type/ave/delta/count) on step 3700000
Bond:   1   1         1.15156e-06     9360
Angle:  1   109.47    9.25055e-05     4680
   3700000   156.46084     -2194.0868      0             -1830.0723     -12.565976    
SHAKE stats (type/ave/delta/count) on step 3710000
Bond:   1   1         1.40222e-06     9360
Angle:  1   109.47    0.00010412      4680
   3710000   155.40615     -2188.5453      0             -1826.9846      5.8273029    
SHAKE stats (type/ave/delta/count) on step 3720000
Bond:   1   1         1.43417e-06     9360
Angle:  1   109.47    0.000120378     4680
   3720000   157.5096      -2192.6178      0             -1826.1633     -6.7661652    
SHAKE stats (type/ave/delta/count) on step 3730000
Bond:   1   1         1.25406e-06     9360
Angle:  1   109.47    9.51418e-05     4680
   3730000   154.8366      -2190.5111      0             -1830.2755     -24.819699    
SHAKE stats (type/ave/delta/count) on step 3740000
Bond:   1   1         1.44842e-06     9360
Angle:  1   109.47    0.000120036     4680
   3740000   157.48489     -2188.5365      0             -1822.1395      9.4530738    
SHAKE stats (type/ave/delta/count) on step 3750000
Bond:   1   1         1.62786e-06     9360
Angle:  1   109.47    0.00010992      4680
   3750000   154.52717     -2189.3382      0             -1829.8224     -17.235182    
SHAKE stats (type/ave/delta/count) on step 3760000
Bond:   1   1         1.40856e-06     9360
Angle:  1   109.47    0.000105658     4680
   3760000   154.69813     -2195.7615      0             -1835.8481     -14.732232    
SHAKE stats (type/ave/delta/count) on step 3770000
Bond:   1   1         1.22634e-06     9360
Angle:  1   109.47    9.82576e-05     4680
   3770000   154.41746     -2201.3094      0             -1842.0489     -12.6302      
SHAKE stats (type/ave/delta/count) on step 3780000
Bond:   1   1         1.53447e-06     9360
Angle:  1   109.47    0.000101253     4680
   3780000   155.10967     -2185.9619      0             -1825.091      -4.047335     
SHAKE stats (type/ave/delta/count) on step 3790000
Bond:   1   1         1.48683e-06     9360
Angle:  1   109.47    0.000154943     4680
   3790000   156.66481     -2194.0633      0             -1829.5743     -5.5994385    
SHAKE stats (type/ave/delta/count) on step 3800000
Bond:   1   1         1.26356e-06     9360
Angle:  1   109.47    0.000106091     4680
   3800000   156.42806     -2187.5526      0             -1823.6144     -29.182641    
SHAKE stats (type/ave/delta/count) on step 3810000
Bond:   1   1         1.92691e-06     9360
Angle:  1   109.47    0.000147225     4680
   3810000   156.8152      -2184.4511      0             -1819.6121     -14.156531    
SHAKE stats (type/ave/delta/count) on step 3820000
Bond:   1   1         1.16845e-06     9360
Angle:  1   109.47    9.55393e-05     4680
   3820000   155.74032     -2189.2691      0             -1826.9309     -11.39311     
SHAKE stats (type/ave/delta/count) on step 3830000
Bond:   1   1         1.35885e-06     9360
Angle:  1   109.47    0.000107991     4680
   3830000   157.05245     -2193.6568      0             -1828.2659      0.070616878  
SHAKE stats (type/ave/delta/count) on step 3840000
Bond:   1   1         1.21055e-06     9360
Angle:  1   109.47    9.44054e-05     4680
   3840000   154.87116     -2190.7082      0             -1830.3922     -18.219692    
SHAKE stats (type/ave/delta/count) on step 3850000
Bond:   1   1         1.49075e-06     9360
Angle:  1   109.47    9.33866e-05     4680
   3850000   154.32191     -2183.1299      0             -1824.0917      1.8753306    
SHAKE stats (type/ave/delta/count) on step 3860000
Bond:   1   1         1.35275e-06     9360
Angle:  1   109.47    0.000109861     4680
   3860000   153.67633     -2195.5051      0             -1837.9689     -8.6522813    
SHAKE stats (type/ave/delta/count) on step 3870000
Bond:   1   1         1.38459e-06     9360
Angle:  1   109.47    0.000102981     4680
   3870000   156.80836     -2197.5549      0             -1832.7319      5.9457018    
SHAKE stats (type/ave/delta/count) on step 3880000
Bond:   1   1         1.49946e-06     9360
Angle:  1   109.47    0.000122318     4680
   3880000   158.70764     -2187.7358      0             -1818.494      -9.427376     
SHAKE stats (type/ave/delta/count) on step 3890000
Bond:   1   1         1.36389e-06     9360
Angle:  1   109.47    9.02269e-05     4680
   3890000   156.14872     -2191.5973      0             -1828.309       0.33932717   
SHAKE stats (type/ave/delta/count) on step 3900000
Bond:   1   1         1.4214e-06      9360
Angle:  1   109.47    0.000107874     4680
   3900000   153.65131     -2189.5023      0             -1832.0243      9.5296729    
SHAKE stats (type/ave/delta/count) on step 3910000
Bond:   1   1         1.19306e-06     9360
Angle:  1   109.47    0.000102658     4680
   3910000   157.56121     -2188.9429      0             -1822.3683     -4.6807083    
SHAKE stats (type/ave/delta/count) on step 3920000
Bond:   1   1         1.63308e-06     9360
Angle:  1   109.47    0.000112784     4680
   3920000   157.73878     -2193.2375      0             -1826.2498      4.3498139    
SHAKE stats (type/ave/delta/count) on step 3930000
Bond:   1   1         1.28212e-06     9360
Angle:  1   109.47    9.30804e-05     4680
   3930000   156.02899     -2195.6525      0             -1832.6427     -21.584231    
SHAKE stats (type/ave/delta/count) on step 3940000
Bond:   1   1         1.2893e-06      9360
Angle:  1   109.47    9.41653e-05     4680
   3940000   157.74908     -2190.635       0             -1823.6233     -14.525973    
SHAKE stats (type/ave/delta/count) on step 3950000
Bond:   1   1         1.22718e-06     9360
Angle:  1   109.47    0.000104353     4680
   3950000   154.62453     -2188.5836      0             -1828.8414     -8.810499     
SHAKE stats (type/ave/delta/count) on step 3960000
Bond:   1   1         1.34558e-06     9360
Angle:  1   109.47    9.61462e-05     4680
   3960000   153.5885      -2198.7951      0             -1841.4633     -4.9087006    
SHAKE stats (type/ave/delta/count) on step 3970000
Bond:   1   1         1.2393e-06      9360
Angle:  1   109.47    9.44887e-05     4680
   3970000   158.24968     -2196.4008      0             -1828.2245     -2.6414291    
SHAKE stats (type/ave/delta/count) on step 3980000
Bond:   1   1         1.52659e-06     9360
Angle:  1   109.47    9.33692e-05     4680
   3980000   156.52085     -2195.2973      0             -1831.1431     -12.003794    
SHAKE stats (type/ave/delta/count) on step 3990000
Bond:   1   1         1.57976e-06     9360
Angle:  1   109.47    0.000106449     4680
   3990000   155.97777     -2188.9558      0             -1826.0652      5.0527213    
SHAKE stats (type/ave/delta/count) on step 4000000
Bond:   1   1         1.24523e-06     9360
Angle:  1   109.47    9.63122e-05     4680
   4000000   156.04674     -2193.998       0             -1830.947      -17.472817    
SHAKE stats (type/ave/delta/count) on step 4010000
Bond:   1   1         1.59772e-06     9360
Angle:  1   109.47    0.000116487     4680
   4010000   156.60869     -2197.0239      0             -1832.6654     -19.474747    
SHAKE stats (type/ave/delta/count) on step 4020000
Bond:   1   1         1.41105e-06     9360
Angle:  1   109.47    0.000101284     4680
   4020000   157.21114     -2191.2087      0             -1825.4486      2.1582946    
SHAKE stats (type/ave/delta/count) on step 4030000
Bond:   1   1         1.53986e-06     9360
Angle:  1   109.47    0.000118978     4680
   4030000   154.40247     -2191.5152      0             -1832.2897     -13.984141    
SHAKE stats (type/ave/delta/count) on step 4040000
Bond:   1   1         1.14312e-06     9360
Angle:  1   109.47    9.95315e-05     4680
   4040000   155.60253     -2200.5628      0             -1838.5452     -21.047645    
SHAKE stats (type/ave/delta/count) on step 4050000
Bond:   1   1         1.38393e-06     9360
Angle:  1   109.47    0.000104963     4680
   4050000   156.63988     -2193.8284      0             -1829.3974     -7.0016149    
SHAKE stats (type/ave/delta/count) on step 4060000
Bond:   1   1         1.49171e-06     9360
Angle:  1   109.47    0.000111686     4680
   4060000   156.52524     -2197.069       0             -1832.9047     -7.4791532    
SHAKE stats (type/ave/delta/count) on step 4070000
Bond:   1   1         1.21957e-06     9360
Angle:  1   109.47    9.45839e-05     4680
   4070000   155.01851     -2199.1195      0             -1838.4607      4.8241642    
SHAKE stats (type/ave/delta/count) on step 4080000
Bond:   1   1         1.13944e-06     9360
Angle:  1   109.47    9.3864e-05      4680
   4080000   156.79922     -2189.5342      0             -1824.7325     -17.387001    
SHAKE stats (type/ave/delta/count) on step 4090000
Bond:   1   1         1.46933e-06     9360
Angle:  1   109.47    8.87064e-05     4680
   4090000   156.65916     -2180.7285      0             -1816.2526      0.049770645  
SHAKE stats (type/ave/delta/count) on step 4100000
Bond:   1   1         1.261e-06       9360
Angle:  1   109.47    0.000100721     4680
   4100000   153.87794     -2192.2476      0             -1834.2424     -23.089558    
SHAKE stats (type/ave/delta/count) on step 4110000
Bond:   1   1         1.29154e-06     9360
Angle:  1   109.47    9.92296e-05     4680
   4110000   154.68287     -2190.9203      0             -1831.0424     -16.443788    
SHAKE stats (type/ave/delta/count) on step 4120000
Bond:   1   1         1.59863e-06     9360
Angle:  1   109.47    0.000129419     4680
   4120000   153.81173     -2199.1291      0             -1841.2779     -14.39248     
SHAKE stats (type/ave/delta/count) on step 4130000
Bond:   1   1         1.53718e-06     9360
Angle:  1   109.47    9.78968e-05     4680
   4130000   155.21629     -2190.65        0             -1829.531      -20.57538     
SHAKE stats (type/ave/delta/count) on step 4140000
Bond:   1   1         1.28486e-06     9360
Angle:  1   109.47    9.86583e-05     4680
   4140000   155.18347     -2193.2035      0             -1832.1609     -4.2255047    
SHAKE stats (type/ave/delta/count) on step 4150000
Bond:   1   1         1.49084e-06     9360
Angle:  1   109.47    9.72925e-05     4680
   4150000   157.07832     -2194.3009      0             -1828.8498     -11.25435     
SHAKE stats (type/ave/delta/count) on step 4160000
Bond:   1   1         1.31771e-06     9360
Angle:  1   109.47    0.000100056     4680
   4160000   156.57402     -2197.8076      0             -1833.5298     -9.4276637    
SHAKE stats (type/ave/delta/count) on step 4170000
Bond:   1   1         1.27608e-06     9360
Angle:  1   109.47    0.000106549     4680
   4170000   154.58723     -2184.4601      0             -1824.8046     -7.2872784    
SHAKE stats (type/ave/delta/count) on step 4180000
Bond:   1   1         1.36752e-06     9360
Angle:  1   109.47    9.51704e-05     4680
   4180000   155.8164      -2202.4277      0             -1839.9125     -24.232569    
SHAKE stats (type/ave/delta/count) on step 4190000
Bond:   1   1         1.53846e-06     9360
Angle:  1   109.47    0.000107689     4680
   4190000   153.81309     -2196.0789      0             -1838.2245     -6.9231087    
SHAKE stats (type/ave/delta/count) on step 4200000
Bond:   1   1         1.86628e-06     9360
Angle:  1   109.47    0.000123386     4680
   4200000   156.60043     -2192.5727      0             -1828.2334     -5.3631434    
SHAKE stats (type/ave/delta/count) on step 4210000
Bond:   1   1         1.21126e-06     9360
Angle:  1   109.47    9.53341e-05     4680
   4210000   157.91307     -2190.1392      0             -1822.746      -5.0961111    
SHAKE stats (type/ave/delta/count) on step 4220000
Bond:   1   1         1.26923e-06     9360
Angle:  1   109.47    9.98772e-05     4680
   4220000   154.93031     -2197.9226      0             -1837.469      -11.154136    
SHAKE stats (type/ave/delta/count) on step 4230000
Bond:   1   1         1.40434e-06     9360
Angle:  1   109.47    0.000101148     4680
   4230000   157.95753     -2184.2763      0             -1816.7796     -13.102225    
SHAKE stats (type/ave/delta/count) on step 4240000
Bond:   1   1         1.57603e-06     9360
Angle:  1   109.47    0.000101513     4680
   4240000   157.44608     -2182.722       0             -1816.4153     -22.503648    
SHAKE stats (type/ave/delta/count) on step 4250000
Bond:   1   1         1.22474e-06     9360
Angle:  1   109.47    0.000105499     4680
   4250000   154.84375     -2199.3579      0             -1839.1057     -27.769728    
SHAKE stats (type/ave/delta/count) on step 4260000
Bond:   1   1         1.1717e-06      9360
Angle:  1   109.47    0.000111454     4680
   4260000   155.37839     -2198.7372      0             -1837.2411     -14.233639    
SHAKE stats (type/ave/delta/count) on step 4270000
Bond:   1   1         1.32144e-06     9360
Angle:  1   109.47    0.000117497     4680
   4270000   156.01383     -2192.609       0             -1829.6345     -11.444477    
SHAKE stats (type/ave/delta/count) on step 4280000
Bond:   1   1         1.46091e-06     9360
Angle:  1   109.47    9.06527e-05     4680
   4280000   153.78379     -2191.1256      0             -1833.3394     -19.267907    
SHAKE stats (type/ave/delta/count) on step 4290000
Bond:   1   1         1.26593e-06     9360
Angle:  1   109.47    9.92512e-05     4680
   4290000   158.31472     -2190.3805      0             -1822.0529     -15.196607    
SHAKE stats (type/ave/delta/count) on step 4300000
Bond:   1   1         1.25725e-06     9360
Angle:  1   109.47    9.39189e-05     4680
   4300000   157.32073     -2192.1928      0             -1826.1777     -13.086481    
SHAKE stats (type/ave/delta/count) on step 4310000
Bond:   1   1         1.26702e-06     9360
Angle:  1   109.47    9.67304e-05     4680
   4310000   155.44164     -2191.9558      0             -1830.3125     -18.688051    
SHAKE stats (type/ave/delta/count) on step 4320000
Bond:   1   1         1.25001e-06     9360
Angle:  1   109.47    0.000100869     4680
   4320000   155.80496     -2189.5472      0             -1827.0586     -21.59431     
SHAKE stats (type/ave/delta/count) on step 4330000
Bond:   1   1         1.20706e-06     9360
Angle:  1   109.47    9.82416e-05     4680
   4330000   156.66259     -2195.4078      0             -1830.924      -7.2963434    
SHAKE stats (type/ave/delta/count) on step 4340000
Bond:   1   1         1.32948e-06     9360
Angle:  1   109.47    0.000163913     4680
   4340000   156.03029     -2183.313       0             -1820.3002     -17.704304    
SHAKE stats (type/ave/delta/count) on step 4350000
Bond:   1   1         1.74956e-06     9360
Angle:  1   109.47    0.000114677     4680
   4350000   155.81155     -2192.1612      0             -1829.6573     -12.221095    
SHAKE stats (type/ave/delta/count) on step 4360000
Bond:   1   1         1.21106e-06     9360
Angle:  1   109.47    9.64397e-05     4680
   4360000   152.86312     -2190.2751      0             -1834.6309     -22.828383    
SHAKE stats (type/ave/delta/count) on step 4370000
Bond:   1   1         1.34902e-06     9360
Angle:  1   109.47    0.000100934     4680
   4370000   155.53493     -2197.5101      0             -1835.6498     -6.43803      
SHAKE stats (type/ave/delta/count) on step 4380000
Bond:   1   1         1.80308e-06     9360
Angle:  1   109.47    0.00014564      4680
   4380000   156.34324     -2195.5305      0             -1831.7897     -6.4118756    
SHAKE stats (type/ave/delta/count) on step 4390000
Bond:   1   1         1.33461e-06     9360
Angle:  1   109.47    0.000110393     4680
   4390000   157.48889     -2194.4548      0             -1828.0485      0.5815195    
SHAKE stats (type/ave/delta/count) on step 4400000
Bond:   1   1         1.45754e-06     9360
Angle:  1   109.47    9.76309e-05     4680
   4400000   154.9213      -2191.378       0             -1830.9453     -5.087129     
SHAKE stats (type/ave/delta/count) on step 4410000
Bond:   1   1         1.32058e-06     9360
Angle:  1   109.47    9.79822e-05     4680
   4410000   156.90591     -2190.9029      0             -1825.8529      0.61723303   
SHAKE stats (type/ave/delta/count) on step 4420000
Bond:   1   1         1.48853e-06     9360
Angle:  1   109.47    0.00010117      4680
   4420000   155.97595     -2184.3864      0             -1821.5        -19.265023    
SHAKE stats (type/ave/delta/count) on step 4430000
Bond:   1   1         1.40328e-06     9360
Angle:  1   109.47    9.75206e-05     4680
   4430000   157.24369     -2195.7136      0             -1829.8778     -15.740933    
SHAKE stats (type/ave/delta/count) on step 4440000
Bond:   1   1         1.21391e-06     9360
Angle:  1   109.47    0.000105168     4680
   4440000   156.70092     -2195.616       0             -1831.0429     -13.78832     
SHAKE stats (type/ave/delta/count) on step 4450000
Bond:   1   1         1.24697e-06     9360
Angle:  1   109.47    9.99543e-05     4680
   4450000   155.65593     -2196.1555      0             -1834.0137     -7.2072221    
SHAKE stats (type/ave/delta/count) on step 4460000
Bond:   1   1         1.13341e-06     9360
Angle:  1   109.47    0.000107852     4680
   4460000   156.98701     -2191.7206      0             -1826.4819     -19.580792    
SHAKE stats (type/ave/delta/count) on step 4470000
Bond:   1   1         1.64805e-06     9360
Angle:  1   109.47    0.000110389     4680
   4470000   157.08426     -2186.8426      0             -1821.3776     -10.93142     
SHAKE stats (type/ave/delta/count) on step 4480000
Bond:   1   1         1.388e-06       9360
Angle:  1   109.47    0.000105222     4680
   4480000   155.80836     -2194.0664      0             -1831.5699     -9.727546     
SHAKE stats (type/ave/delta/count) on step 4490000
Bond:   1   1         1.31725e-06     9360
Angle:  1   109.47    9.86027e-05     4680
   4490000   151.93329     -2188.0599      0             -1834.579      -25.094776    
SHAKE stats (type/ave/delta/count) on step 4500000
Bond:   1   1         1.26201e-06     9360
Angle:  1   109.47    9.08047e-05     4680
   4500000   155.25353     -2186.5327      0             -1825.3271      0.51021539   
SHAKE stats (type/ave/delta/count) on step 4510000
Bond:   1   1         1.2331e-06      9360
Angle:  1   109.47    0.00010945      4680
   4510000   154.6724      -2186.9047      0             -1827.0511     -10.777188    
SHAKE stats (type/ave/delta/count) on step 4520000
Bond:   1   1         1.53495e-06     9360
Angle:  1   109.47    0.00010328      4680
   4520000   156.38843     -2192.9854      0             -1829.1393     -13.288086    
SHAKE stats (type/ave/delta/count) on step 4530000
Bond:   1   1         1.21599e-06     9360
Angle:  1   109.47    9.95112e-05     4680
   4530000   157.79441     -2196.5358      0             -1829.4187     -4.7532351    
SHAKE stats (type/ave/delta/count) on step 4540000
Bond:   1   1         1.60993e-06     9360
Angle:  1   109.47    0.000121404     4680
   4540000   155.94505     -2191.1518      0             -1828.3373     -9.7868201    
SHAKE stats (type/ave/delta/count) on step 4550000
Bond:   1   1         1.1333e-06      9360
Angle:  1   109.47    9.93814e-05     4680
   4550000   154.73396     -2192.4416      0             -1832.4448     -1.5450684    
SHAKE stats (type/ave/delta/count) on step 4560000
Bond:   1   1         1.6647e-06      9360
Angle:  1   109.47    0.000114516     4680
   4560000   154.93548     -2187.035       0             -1826.5693     -8.9957933    
SHAKE stats (type/ave/delta/count) on step 4570000
Bond:   1   1         1.15327e-06     9360
Angle:  1   109.47    9.44782e-05     4680
   4570000   155.93229     -2187.4883      0             -1824.7035     -12.179631    
SHAKE stats (type/ave/delta/count) on step 4580000
Bond:   1   1         1.38563e-06     9360
Angle:  1   109.47    9.6233e-05      4680
   4580000   153.03471     -2188.5904      0             -1832.547      -6.0622163    
SHAKE stats (type/ave/delta/count) on step 4590000
Bond:   1   1         1.28237e-06     9360
Angle:  1   109.47    9.56584e-05     4680
   4590000   157.30038     -2195.8897      0             -1829.9219     -9.4002193    
SHAKE stats (type/ave/delta/count) on step 4600000
Bond:   1   1         1.64412e-06     9360
Angle:  1   109.47    0.000109989     4680
   4600000   155.48045     -2186.2937      0             -1824.5602     -7.3952592    
SHAKE stats (type/ave/delta/count) on step 4610000
Bond:   1   1         1.44089e-06     9360
Angle:  1   109.47    9.38125e-05     4680
   4610000   156.771       -2200.7798      0             -1836.0437     -20.660133    
SHAKE stats (type/ave/delta/count) on step 4620000
Bond:   1   1         1.24518e-06     9360
Angle:  1   109.47    9.29118e-05     4680
   4620000   155.91835     -2187.5905      0             -1824.8381     -23.95201     
SHAKE stats (type/ave/delta/count) on step 4630000
Bond:   1   1         1.17492e-06     9360
Angle:  1   109.47    9.27525e-05     4680
   4630000   154.90523     -2198.8414      0             -1838.4462     -7.4628906    
SHAKE stats (type/ave/delta/count) on step 4640000
Bond:   1   1         1.27946e-06     9360
Angle:  1   109.47    9.45648e-05     4680
   4640000   157.33931     -2192.402       0             -1826.3437     -17.508192    
SHAKE stats (type/ave/delta/count) on step 4650000
Bond:   1   1         1.31799e-06     9360
Angle:  1   109.47    0.00011049      4680
   4650000   156.80103     -2187.6683      0             -1822.8624     -4.9232462    
SHAKE stats (type/ave/delta/count) on step 4660000
Bond:   1   1         1.52841e-06     9360
Angle:  1   109.47    0.000109729     4680
   4660000   159.05766     -2190.5838      0             -1820.5276     -13.227282    
SHAKE stats (type/ave/delta/count) on step 4670000
Bond:   1   1         1.12675e-06     9360
Angle:  1   109.47    0.000101199     4680
   4670000   156.36428     -2198.6168      0             -1834.827      -4.756678     
SHAKE stats (type/ave/delta/count) on step 4680000
Bond:   1   1         1.28218e-06     9360
Angle:  1   109.47    0.000102245     4680
   4680000   158.53934     -2187.5125      0             -1818.6623     -5.7318577    
SHAKE stats (type/ave/delta/count) on step 4690000
Bond:   1   1         1.71883e-06     9360
Angle:  1   109.47    9.73449e-05     4680
   4690000   155.59544     -2183.0596      0             -1821.0585     -21.06277     
SHAKE stats (type/ave/delta/count) on step 4700000
Bond:   1   1         1.59902e-06     9360
Angle:  1   109.47    0.000132661     4680
   4700000   155.82522     -2186.5109      0             -1823.9752     -12.462876    
SHAKE stats (type/ave/delta/count) on step 4710000
Bond:   1   1         1.43426e-06     9360
Angle:  1   109.47    0.000107793     4680
   4710000   157.10034     -2188.8755      0             -1823.3732     -6.559992     
SHAKE stats (type/ave/delta/count) on step 4720000
Bond:   1   1         1.51293e-06     9360
Angle:  1   109.47    9.65257e-05     4680
   4720000   157.6686      -2184.2474      0             -1817.423      -10.434589    
SHAKE stats (type/ave/delta/count) on step 4730000
Bond:   1   1         1.19679e-06     9360
Angle:  1   109.47    0.000109508     4680
   4730000   155.28796     -2190.2002      0             -1828.9145     -8.6995147    
SHAKE stats (type/ave/delta/count) on step 4740000
Bond:   1   1         1.3791e-06      9360
Angle:  1   109.47    9.02475e-05     4680
   4740000   158.28461     -2188.4499      0             -1820.1923     -19.546405    
SHAKE stats (type/ave/delta/count) on step 4750000
Bond:   1   1         1.86663e-06     9360
Angle:  1   109.47    0.000119147     4680
   4750000   159.56485     -2188.466       0             -1817.2299     -9.4388201    
SHAKE stats (type/ave/delta/count) on step 4760000
Bond:   1   1         1.20932e-06     9360
Angle:  1   109.47    9.5398e-05      4680
   4760000   158.92429     -2202.879       0             -1833.1332     -7.9563374    
SHAKE stats (type/ave/delta/count) on step 4770000
Bond:   1   1         1.22404e-06     9360
Angle:  1   109.47    8.87157e-05     4680
   4770000   158.62508     -2188.9908      0             -1819.941      -15.762903    
SHAKE stats (type/ave/delta/count) on step 4780000
Bond:   1   1         1.35893e-06     9360
Angle:  1   109.47    9.93487e-05     4680
   4780000   156.03241     -2188.7917      0             -1825.774      -19.824026    
SHAKE stats (type/ave/delta/count) on step 4790000
Bond:   1   1         1.37681e-06     9360
Angle:  1   109.47    0.000120995     4680
   4790000   154.40811     -2192.6488      0             -1833.41       -15.130075    
SHAKE stats (type/ave/delta/count) on step 4800000
Bond:   1   1         1.33317e-06     9360
Angle:  1   109.47    9.51788e-05     4680
   4800000   156.35402     -2199.1561      0             -1835.3901     -14.157915    
SHAKE stats (type/ave/delta/count) on step 4810000
Bond:   1   1         1.0998e-06      9360
Angle:  1   109.47    0.00010078      4680
   4810000   155.72825     -2180.2436      0             -1817.9336     -14.003797    
SHAKE stats (type/ave/delta/count) on step 4820000
Bond:   1   1         1.15776e-06     9360
Angle:  1   109.47    0.000100946     4680
   4820000   154.44594     -2191.7349      0             -1832.4082     -9.25022      
SHAKE stats (type/ave/delta/count) on step 4830000
Bond:   1   1         1.32751e-06     9360
Angle:  1   109.47    0.000100989     4680
   4830000   153.58311     -2197.6303      0             -1840.311      -29.041959    
SHAKE stats (type/ave/delta/count) on step 4840000
Bond:   1   1         1.22324e-06     9360
Angle:  1   109.47    0.000106337     4680
   4840000   154.47132     -2199.7859      0             -1840.4002     -19.008491    
SHAKE stats (type/ave/delta/count) on step 4850000
Bond:   1   1         1.30731e-06     9360
Angle:  1   109.47    0.000105883     4680
   4850000   156.40494     -2186.0414      0             -1822.1569     -2.4343077    
SHAKE stats (type/ave/delta/count) on step 4860000
Bond:   1   1         1.40899e-06     9360
Angle:  1   109.47    9.97967e-05     4680
   4860000   155.39517     -2186.9584      0             -1825.4233     -7.4128341    
SHAKE stats (type/ave/delta/count) on step 4870000
Bond:   1   1         1.40847e-06     9360
Angle:  1   109.47    0.00010954      4680
   4870000   154.50555     -2190.6481      0             -1831.1827     -20.944611    
SHAKE stats (type/ave/delta/count) on step 4880000
Bond:   1   1         1.11371e-06     9360
Angle:  1   109.47    8.83743e-05     4680
   4880000   155.24351     -2189.1427      0             -1827.9604     -17.160998    
SHAKE stats (type/ave/delta/count) on step 4890000
Bond:   1   1         1.3146e-06      9360
Angle:  1   109.47    0.000130827     4680
   4890000   155.48687     -2195.6278      0             -1833.8793     -0.71607644   
SHAKE stats (type/ave/delta/count) on step 4900000
Bond:   1   1         1.3032e-06      9360
Angle:  1   109.47    0.000102334     4680
   4900000   156.4521      -2190.6862      0             -1826.692      -9.8169303    
SHAKE stats (type/ave/delta/count) on step 4910000
Bond:   1   1         1.27474e-06     9360
Angle:  1   109.47    0.000102311     4680
   4910000   156.47238     -2191.7668      0             -1827.7255     -11.237479    
SHAKE stats (type/ave/delta/count) on step 4920000
Bond:   1   1         1.64884e-06     9360
Angle:  1   109.47    0.000128245     4680
   4920000   152.08682     -2188.3395      0             -1834.5014     -22.508236    
SHAKE stats (type/ave/delta/count) on step 4930000
Bond:   1   1         1.76919e-06     9360
Angle:  1   109.47    0.000111032     4680
   4930000   156.19584     -2193.4632      0             -1830.0652      1.112619     
SHAKE stats (type/ave/delta/count) on step 4940000
Bond:   1   1         1.45798e-06     9360
Angle:  1   109.47    0.00011858      4680
   4940000   157.25991     -2192.3449      0             -1826.4713     -0.10471383   
SHAKE stats (type/ave/delta/count) on step 4950000
Bond:   1   1         1.28466e-06     9360
Angle:  1   109.47    9.32479e-05     4680
   4950000   157.5866      -2193.91        0             -1827.2764     -11.776061    
SHAKE stats (type/ave/delta/count) on step 4960000
Bond:   1   1         1.43989e-06     9360
Angle:  1   109.47    0.00011818      4680
   4960000   158.95597     -2184.3324      0             -1814.5128     -33.797393    
SHAKE stats (type/ave/delta/count) on step 4970000
Bond:   1   1         1.44938e-06     9360
Angle:  1   109.47    0.000107083     4680
   4970000   154.65582     -2197.1884      0             -1837.3734     -12.278345    
SHAKE stats (type/ave/delta/count) on step 4980000
Bond:   1   1         1.24579e-06     9360
Angle:  1   109.47    9.34876e-05     4680
   4980000   157.67351     -2198.3347      0             -1831.4989     -14.248212    
SHAKE stats (type/ave/delta/count) on step 4990000
Bond:   1   1         1.24896e-06     9360
Angle:  1   109.47    9.48722e-05     4680
   4990000   155.83393     -2189.137       0             -1826.581       9.4324134    
SHAKE stats (type/ave/delta/count) on step 5000000
Bond:   1   1         1.45151e-06     9360
Angle:  1   109.47    0.000103494     4680
   5000000   154.66082     -2187.94        0             -1828.1133     -6.7205023    
SHAKE stats (type/ave/delta/count) on step 5010000
Bond:   1   1         1.22166e-06     9360
Angle:  1   109.47    9.81212e-05     4680
   5010000   156.81399     -2193.4801      0             -1828.644      -26.898407    
SHAKE stats (type/ave/delta/count) on step 5020000
Bond:   1   1         1.15542e-06     9360
Angle:  1   109.47    0.000108848     4680
   5020000   154.61982     -2184.5483      0             -1824.8171     -9.263686     
SHAKE stats (type/ave/delta/count) on step 5030000
Bond:   1   1         1.41107e-06     9360
Angle:  1   109.47    9.98639e-05     4680
   5030000   156.34811     -2185.2962      0             -1821.544      -16.615955    
SHAKE stats (type/ave/delta/count) on step 5040000
Bond:   1   1         1.22438e-06     9360
Angle:  1   109.47    9.86459e-05     4680
   5040000   155.81654     -2191.3394      0             -1828.8239     -15.941247    
SHAKE stats (type/ave/delta/count) on step 5050000
Bond:   1   1         1.25866e-06     9360
Angle:  1   109.47    9.56194e-05     4680
   5050000   155.22141     -2192.4923      0             -1831.3614     -4.806527     
SHAKE stats (type/ave/delta/count) on step 5060000
Bond:   1   1         1.54404e-06     9360
Angle:  1   109.47    9.93879e-05     4680
   5060000   154.47372     -2191.5387      0             -1832.1474     -8.4177828    
SHAKE stats (type/ave/delta/count) on step 5070000
Bond:   1   1         1.44529e-06     9360
Angle:  1   109.47    9.73412e-05     4680
   5070000   155.40149     -2191.9802      0             -1830.4303     -16.305623    
SHAKE stats (type/ave/delta/count) on step 5080000
Bond:   1   1         1.27693e-06     9360
Angle:  1   109.47    0.000103113     4680
   5080000   154.60386     -2187.9415      0             -1828.2473     -2.2089113    
SHAKE stats (type/ave/delta/count) on step 5090000
Bond:   1   1         1.29648e-06     9360
Angle:  1   109.47    0.000107418     4680
   5090000   156.75747     -2190.2522      0             -1825.5476     -25.779078    
SHAKE stats (type/ave/delta/count) on step 5100000
Bond:   1   1         1.76828e-06     9360
Angle:  1   109.47    0.000123657     4680
   5100000   156.21481     -2192.2468      0             -1828.8047     -19.068184    
SHAKE stats (type/ave/delta/count) on step 5110000
Bond:   1   1         1.19953e-06     9360
Angle:  1   109.47    0.00010467      4680
   5110000   156.52579     -2193.5244      0             -1829.3588     -18.194819    
SHAKE stats (type/ave/delta/count) on step 5120000
Bond:   1   1         1.17981e-06     9360
Angle:  1   109.47    9.53868e-05     4680
   5120000   156.32021     -2205.7366      0             -1842.0493     -7.0971475    
SHAKE stats (type/ave/delta/count) on step 5130000
Bond:   1   1         1.53074e-06     9360
Angle:  1   109.47    0.000112857     4680
   5130000   153.07463     -2189.2002      0             -1833.0639     -3.8345525    
SHAKE stats (type/ave/delta/count) on step 5140000
Bond:   1   1         1.18353e-06     9360
Angle:  1   109.47    0.000114358     4680
   5140000   155.73587     -2196.2089      0             -1833.8811     -10.830774    
SHAKE stats (type/ave/delta/count) on step 5150000
Bond:   1   1         1.58222e-06     9360
Angle:  1   109.47    0.0001129       4680
   5150000   158.55857     -2187.0419      0             -1818.1469     -16.252722    
SHAKE stats (type/ave/delta/count) on step 5160000
Bond:   1   1         1.21678e-06     9360
Angle:  1   109.47    0.000106708     4680
   5160000   155.38676     -2194.8238      0             -1833.3083     -9.6622884    
SHAKE stats (type/ave/delta/count) on step 5170000
Bond:   1   1         1.53431e-06     9360
Angle:  1   109.47    0.000108894     4680
   5170000   155.71721     -2194.8303      0             -1832.5459     -5.6770072    
SHAKE stats (type/ave/delta/count) on step 5180000
Bond:   1   1         1.17452e-06     9360
Angle:  1   109.47    9.62046e-05     4680
   5180000   153.24529     -2187.5347      0             -1831.0014     -18.213699    
SHAKE stats (type/ave/delta/count) on step 5190000
Bond:   1   1         1.42226e-06     9360
Angle:  1   109.47    0.000104757     4680
   5190000   157.77524     -2196.3402      0             -1829.2677     -14.782703    
SHAKE stats (type/ave/delta/count) on step 5200000
Bond:   1   1         1.18952e-06     9360
Angle:  1   109.47    0.000105439     4680
   5200000   156.95531     -2191.9851      0             -1826.8202     -11.163755    
SHAKE stats (type/ave/delta/count) on step 5210000
Bond:   1   1         1.35992e-06     9360
Angle:  1   109.47    9.95091e-05     4680
   5210000   157.27651     -2188.9041      0             -1822.9919     -17.514097    
SHAKE stats (type/ave/delta/count) on step 5220000
Bond:   1   1         1.29752e-06     9360
Angle:  1   109.47    9.62534e-05     4680
   5220000   156.09091     -2197.8432      0             -1834.6894     -12.89795     
SHAKE stats (type/ave/delta/count) on step 5230000
Bond:   1   1         1.10024e-06     9360
Angle:  1   109.47    8.97755e-05     4680
   5230000   154.55981     -2195.0037      0             -1835.412       2.3188524    
SHAKE stats (type/ave/delta/count) on step 5240000
Bond:   1   1         1.51416e-06     9360
Angle:  1   109.47    9.38299e-05     4680
   5240000   157.1608      -2189.3372      0             -1823.6942     -10.969001    
SHAKE stats (type/ave/delta/count) on step 5250000
Bond:   1   1         1.41022e-06     9360
Angle:  1   109.47    9.67413e-05     4680
   5250000   157.99694     -2191.7847      0             -1824.1964     -13.769335    
SHAKE stats (type/ave/delta/count) on step 5260000
Bond:   1   1         1.32869e-06     9360
Angle:  1   109.47    9.37329e-05     4680
   5260000   155.72959     -2199.6385      0             -1837.3253     -26.683927    
SHAKE stats (type/ave/delta/count) on step 5270000
Bond:   1   1         1.40422e-06     9360
Angle:  1   109.47    9.81611e-05     4680
   5270000   155.62019     -2189.4209      0             -1827.3622     -20.629932    
SHAKE stats (type/ave/delta/count) on step 5280000
Bond:   1   1         1.40874e-06     9360
Angle:  1   109.47    9.07049e-05     4680
   5280000   154.84747     -2184.153       0             -1823.8921     -18.686787    
SHAKE stats (type/ave/delta/count) on step 5290000
Bond:   1   1         1.46653e-06     9360
Angle:  1   109.47    0.000104062     4680
   5290000   155.35219     -2192.4246      0             -1830.9894     -12.341459    
SHAKE stats (type/ave/delta/count) on step 5300000
Bond:   1   1         1.54709e-06     9360
Angle:  1   109.47    0.000104942     4680
   5300000   156.63446     -2197.7969      0             -1833.3784     -16.249741    
SHAKE stats (type/ave/delta/count) on step 5310000
Bond:   1   1         1.47557e-06     9360
Angle:  1   109.47    0.000110799     4680
   5310000   155.94842     -2187.1672      0             -1824.3449     -18.425776    
SHAKE stats (type/ave/delta/count) on step 5320000
Bond:   1   1         1.32849e-06     9360
Angle:  1   109.47    0.000108245     4680
   5320000   158.20116     -2193.4239      0             -1825.3605     -8.0262964    
SHAKE stats (type/ave/delta/count) on step 5330000
Bond:   1   1         1.23015e-06     9360
Angle:  1   109.47    0.000103094     4680
   5330000   156.1594      -2187.8264      0             -1824.5132      1.2177452    
SHAKE stats (type/ave/delta/count) on step 5340000
Bond:   1   1         1.26574e-06     9360
Angle:  1   109.47    0.000104137     4680
   5340000   158.95277     -2198.1758      0             -1828.3638     -16.413041    
SHAKE stats (type/ave/delta/count) on step 5350000
Bond:   1   1         1.15831e-06     9360
Angle:  1   109.47    9.56832e-05     4680
   5350000   158.20066     -2194.4403      0             -1826.378      -18.707612    
SHAKE stats (type/ave/delta/count) on step 5360000
Bond:   1   1         1.30029e-06     9360
Angle:  1   109.47    9.48281e-05     4680
   5360000   155.41005     -2196.1126      0             -1834.5428      9.9215047    
SHAKE stats (type/ave/delta/count) on step 5370000
Bond:   1   1         1.16117e-06     9360
Angle:  1   109.47    9.96216e-05     4680
   5370000   154.72742     -2194.0976      0             -1834.116      -14.977661    
SHAKE stats (type/ave/delta/count) on step 5380000
Bond:   1   1         1.48506e-06     9360
Angle:  1   109.47    0.000111042     4680
   5380000   154.27192     -2187.3149      0             -1828.3931     -3.8697053    
SHAKE stats (type/ave/delta/count) on step 5390000
Bond:   1   1         1.24912e-06     9360
Angle:  1   109.47    9.84606e-05     4680
   5390000   157.09145     -2198.6105      0             -1833.1289     -14.89496     
SHAKE stats (type/ave/delta/count) on step 5400000
Bond:   1   1         1.08538e-06     9360
Angle:  1   109.47    0.000101817     4680
   5400000   155.0829      -2188.8837      0             -1828.075      -3.0131999    
SHAKE stats (type/ave/delta/count) on step 5410000
Bond:   1   1         1.37403e-06     9360
Angle:  1   109.47    9.8121e-05      4680
   5410000   155.92984     -2192.5145      0             -1829.7354     -3.7397311    
SHAKE stats (type/ave/delta/count) on step 5420000
Bond:   1   1         1.68997e-06     9360
Angle:  1   109.47    0.000125576     4680
   5420000   155.90271     -2191.1404      0             -1828.4244      0.69052929   
SHAKE stats (type/ave/delta/count) on step 5430000
Bond:   1   1         1.28565e-06     9360
Angle:  1   109.47    0.000106816     4680
   5430000   157.73663     -2190.9493      0             -1823.9666     -12.485209    
SHAKE stats (type/ave/delta/count) on step 5440000
Bond:   1   1         1.87006e-06     9360
Angle:  1   109.47    0.00013973      4680
   5440000   154.65713     -2185.4207      0             -1825.6027      0.74406843   
SHAKE stats (type/ave/delta/count) on step 5450000
Bond:   1   1         1.75748e-06     9360
Angle:  1   109.47    0.000119179     4680
   5450000   156.43632     -2192.4511      0             -1828.4937     -14.100265    
SHAKE stats (type/ave/delta/count) on step 5460000
Bond:   1   1         1.68862e-06     9360
Angle:  1   109.47    0.000107992     4680
   5460000   156.65488     -2194.5919      0             -1830.1259     -17.505326    
SHAKE stats (type/ave/delta/count) on step 5470000
Bond:   1   1         1.55464e-06     9360
Angle:  1   109.47    0.000103981     4680
   5470000   155.9123      -2197.0717      0             -1834.3334     -23.160078    
SHAKE stats (type/ave/delta/count) on step 5480000
Bond:   1   1         1.61444e-06     9360
Angle:  1   109.47    0.000106985     4680
   5480000   155.62493     -2195.4931      0             -1833.4234     -9.2660539    
SHAKE stats (type/ave/delta/count) on step 5490000
Bond:   1   1         1.18522e-06     9360
Angle:  1   109.47    9.376e-05       4680
   5490000   155.81276     -2183.3154      0             -1820.8087     -3.8050928    
SHAKE stats (type/ave/delta/count) on step 5500000
Bond:   1   1         1.13267e-06     9360
Angle:  1   109.47    9.3672e-05      4680
   5500000   155.82452     -2195.6973      0             -1833.1632     -10.194837    
SHAKE stats (type/ave/delta/count) on step 5510000
Bond:   1   1         1.21522e-06     9360
Angle:  1   109.47    9.26822e-05     4680
   5510000   155.94096     -2195.5491      0             -1832.7441     -18.006352    
SHAKE stats (type/ave/delta/count) on step 5520000
Bond:   1   1         1.64792e-06     9360
Angle:  1   109.47    0.000127568     4680
   5520000   155.58695     -2189.5511      0             -1827.5697     -14.845544    
SHAKE stats (type/ave/delta/count) on step 5530000
Bond:   1   1         1.16275e-06     9360
Angle:  1   109.47    0.000105333     4680
   5530000   155.62829     -2191.2985      0             -1829.221      -7.2024681    
SHAKE stats (type/ave/delta/count) on step 5540000
Bond:   1   1         1.33118e-06     9360
Angle:  1   109.47    9.71842e-05     4680
   5540000   155.69862     -2193.8981      0             -1831.657      -15.460746    
SHAKE stats (type/ave/delta/count) on step 5550000
Bond:   1   1         1.27116e-06     9360
Angle:  1   109.47    9.55806e-05     4680
   5550000   155.41624     -2182.938       0             -1821.3538     -0.26574313   
SHAKE stats (type/ave/delta/count) on step 5560000
Bond:   1   1         1.46898e-06     9360
Angle:  1   109.47    0.00012651      4680
   5560000   157.01455     -2184.0445      0             -1818.7418     -10.43488     
SHAKE stats (type/ave/delta/count) on step 5570000
Bond:   1   1         1.50745e-06     9360
Angle:  1   109.47    0.000112326     4680
   5570000   155.62776     -2194.8006      0             -1832.7244     -12.292002    
SHAKE stats (type/ave/delta/count) on step 5580000
Bond:   1   1         1.48143e-06     9360
Angle:  1   109.47    9.78355e-05     4680
   5580000   154.86533     -2190.5962      0             -1830.2937     -17.283019    
SHAKE stats (type/ave/delta/count) on step 5590000
Bond:   1   1         1.78891e-06     9360
Angle:  1   109.47    0.000113976     4680
   5590000   156.23897     -2201.8569      0             -1838.3586     -9.9597432    
SHAKE stats (type/ave/delta/count) on step 5600000
Bond:   1   1         1.27795e-06     9360
Angle:  1   109.47    0.000110926     4680
   5600000   157.60836     -2193.7866      0             -1827.1023     -1.9307865    
SHAKE stats (type/ave/delta/count) on step 5610000
Bond:   1   1         1.39234e-06     9360
Angle:  1   109.47    9.78697e-05     4680
   5610000   155.2741      -2193.7467      0             -1832.4932      1.8292295    
SHAKE stats (type/ave/delta/count) on step 5620000
Bond:   1   1         1.25963e-06     9360
Angle:  1   109.47    0.000101617     4680
   5620000   154.39682     -2179.6819      0             -1820.4695     -4.1815868    
SHAKE stats (type/ave/delta/count) on step 5630000
Bond:   1   1         1.33369e-06     9360
Angle:  1   109.47    9.9341e-05      4680
   5630000   154.14213     -2191.162       0             -1832.5421     -5.8667764    
SHAKE stats (type/ave/delta/count) on step 5640000
Bond:   1   1         1.19603e-06     9360
Angle:  1   109.47    0.000103531     4680
   5640000   155.34459     -2191.8248      0             -1830.4073     -11.823156    
SHAKE stats (type/ave/delta/count) on step 5650000
Bond:   1   1         1.35418e-06     9360
Angle:  1   109.47    9.30543e-05     4680
   5650000   156.40094     -2190.3478      0             -1826.4726     -10.759383    
SHAKE stats (type/ave/delta/count) on step 5660000
Bond:   1   1         1.35457e-06     9360
Angle:  1   109.47    0.000103269     4680
   5660000   156.76382     -2200.5651      0             -1835.8457     -7.4807713    
SHAKE stats (type/ave/delta/count) on step 5670000
Bond:   1   1         1.23381e-06     9360
Angle:  1   109.47    9.90612e-05     4680
   5670000   155.96489     -2185.8816      0             -1823.021      -6.2258534    
SHAKE stats (type/ave/delta/count) on step 5680000
Bond:   1   1         1.28559e-06     9360
Angle:  1   109.47    9.37754e-05     4680
   5680000   157.64752     -2187.8682      0             -1821.0928     -19.371213    
SHAKE stats (type/ave/delta/count) on step 5690000
Bond:   1   1         1.52826e-06     9360
Angle:  1   109.47    0.000109202     4680
   5690000   155.92244     -2193.144       0             -1830.3821     -7.7004382    
SHAKE stats (type/ave/delta/count) on step 5700000
Bond:   1   1         1.37456e-06     9360
Angle:  1   109.47    9.69839e-05     4680
   5700000   156.11105     -2198.2025      0             -1835.0018     -10.06656     
SHAKE stats (type/ave/delta/count) on step 5710000
Bond:   1   1         1.48376e-06     9360
Angle:  1   109.47    9.39185e-05     4680
   5710000   156.96955     -2195.7536      0             -1830.5556      14.681279    
SHAKE stats (type/ave/delta/count) on step 5720000
Bond:   1   1         1.53155e-06     9360
Angle:  1   109.47    0.000118754     4680
   5720000   156.4276      -2195.6079      0             -1831.6708      1.6246379    
SHAKE stats (type/ave/delta/count) on step 5730000
Bond:   1   1         1.53204e-06     9360
Angle:  1   109.47    0.000100022     4680
   5730000   156.61726     -2183.9214      0             -1819.543      -4.8146161    
SHAKE stats (type/ave/delta/count) on step 5740000
Bond:   1   1         1.15222e-06     9360
Angle:  1   109.47    9.1217e-05      4680
   5740000   154.38524     -2190.0427      0             -1830.8572     -19.165397    
SHAKE stats (type/ave/delta/count) on step 5750000
Bond:   1   1         1.39663e-06     9360
Angle:  1   109.47    9.96663e-05     4680
   5750000   157.18179     -2190.3424      0             -1824.6506      1.3616753    
SHAKE stats (type/ave/delta/count) on step 5760000
Bond:   1   1         1.41884e-06     9360
Angle:  1   109.47    0.000107661     4680
   5760000   155.1741      -2193.7358      0             -1832.715      -19.608471    
SHAKE stats (type/ave/delta/count) on step 5770000
Bond:   1   1         1.29614e-06     9360
Angle:  1   109.47    9.48248e-05     4680
   5770000   155.53279     -2203.6289      0             -1841.7736     -7.2152737    
SHAKE stats (type/ave/delta/count) on step 5780000
Bond:   1   1         2.03625e-06     9360
Angle:  1   109.47    0.000122791     4680
   5780000   156.53977     -2191.1846      0             -1826.9865      6.5436419    
SHAKE stats (type/ave/delta/count) on step 5790000
Bond:   1   1         1.76295e-06     9360
Angle:  1   109.47    0.000119732     4680
   5790000   155.86676     -2186.4771      0             -1823.8448     -0.68591959   
SHAKE stats (type/ave/delta/count) on step 5800000
Bond:   1   1         1.34539e-06     9360
Angle:  1   109.47    0.000103457     4680
   5800000   155.02355     -2189.3882      0             -1828.7176     -19.565972    
SHAKE stats (type/ave/delta/count) on step 5810000
Bond:   1   1         1.23302e-06     9360
Angle:  1   109.47    9.01972e-05     4680
   5810000   155.99947     -2198.2163      0             -1835.2752     -6.0566234    
SHAKE stats (type/ave/delta/count) on step 5820000
Bond:   1   1         1.5246e-06      9360
Angle:  1   109.47    0.000102005     4680
   5820000   154.58793     -2191.3784      0             -1831.7213     -10.912269    
SHAKE stats (type/ave/delta/count) on step 5830000
Bond:   1   1         1.20015e-06     9360
Angle:  1   109.47    9.62671e-05     4680
   5830000   154.41975     -2189.0847      0             -1829.8189     -10.57398     
SHAKE stats (type/ave/delta/count) on step 5840000
Bond:   1   1         1.12485e-06     9360
Angle:  1   109.47    0.000103184     4680
   5840000   153.51656     -2191.9084      0             -1834.7439     -0.63024607   
SHAKE stats (type/ave/delta/count) on step 5850000
Bond:   1   1         1.20777e-06     9360
Angle:  1   109.47    0.000106388     4680
   5850000   154.41834     -2193.0633      0             -1833.8008     -8.044741     
SHAKE stats (type/ave/delta/count) on step 5860000
Bond:   1   1         1.21987e-06     9360
Angle:  1   109.47    9.71938e-05     4680
   5860000   156.40675     -2186.0087      0             -1822.1201     -10.893909    
SHAKE stats (type/ave/delta/count) on step 5870000
Bond:   1   1         1.3108e-06      9360
Angle:  1   109.47    9.28052e-05     4680
   5870000   156.45253     -2198.2086      0             -1834.2135      10.410702    
SHAKE stats (type/ave/delta/count) on step 5880000
Bond:   1   1         1.2847e-06      9360
Angle:  1   109.47    0.000101872     4680
   5880000   155.65084     -2190.2306      0             -1828.1006      1.799052     
SHAKE stats (type/ave/delta/count) on step 5890000
Bond:   1   1         1.15706e-06     9360
Angle:  1   109.47    0.000106288     4680
   5890000   154.26645     -2188.0109      0             -1829.1018     -14.411222    
SHAKE stats (type/ave/delta/count) on step 5900000
Bond:   1   1         1.21788e-06     9360
Angle:  1   109.47    9.50914e-05     4680
   5900000   156.05423     -2194.8314      0             -1831.7629     -1.5922452    
SHAKE stats (type/ave/delta/count) on step 5910000
Bond:   1   1         1.61526e-06     9360
Angle:  1   109.47    0.000115684     4680
   5910000   155.83513     -2189.1888      0             -1826.6301     -8.9693991    
SHAKE stats (type/ave/delta/count) on step 5920000
Bond:   1   1         1.57605e-06     9360
Angle:  1   109.47    0.000120665     4680
   5920000   155.20194     -2186.6332      0             -1825.5476     -10.664661    
SHAKE stats (type/ave/delta/count) on step 5930000
Bond:   1   1         1.33977e-06     9360
Angle:  1   109.47    9.98654e-05     4680
   5930000   155.15269     -2185.8549      0             -1824.8839     -10.850978    
SHAKE stats (type/ave/delta/count) on step 5940000
Bond:   1   1         1.25676e-06     9360
Angle:  1   109.47    9.83254e-05     4680
   5940000   155.939       -2194.5268      0             -1831.7264      0.86384014   
SHAKE stats (type/ave/delta/count) on step 5950000
Bond:   1   1         1.27947e-06     9360
Angle:  1   109.47    0.000102194     4680
   5950000   157.05682     -2194.7718      0             -1829.3707     -3.4690616    
SHAKE stats (type/ave/delta/count) on step 5960000
Bond:   1   1         1.36152e-06     9360
Angle:  1   109.47    0.000105903     4680
   5960000   154.4919      -2192.3498      0             -1832.9161     -5.7229464    
SHAKE stats (type/ave/delta/count) on step 5970000
Bond:   1   1         1.11622e-06     9360
Angle:  1   109.47    0.000112136     4680
   5970000   155.88256     -2195.1148      0             -1832.4457     -25.982997    
SHAKE stats (type/ave/delta/count) on step 5980000
Bond:   1   1         1.68872e-06     9360
Angle:  1   109.47    0.000143808     4680
   5980000   156.58189     -2186.0891      0             -1821.793      -8.5953695    
SHAKE stats (type/ave/delta/count) on step 5990000
Bond:   1   1         1.19391e-06     9360
Angle:  1   109.47    0.000103764     4680
   5990000   156.25748     -2181.5232      0             -1817.9818     -27.56124     
SHAKE stats (type/ave/delta/count) on step 6000000
Bond:   1   1         1.30743e-06     9360
Angle:  1   109.47    0.00010299      4680
   6000000   156.13561     -2191.897       0             -1828.6392     -16.632361    
SHAKE stats (type/ave/delta/count) on step 6010000
Bond:   1   1         1.31325e-06     9360
Angle:  1   109.47    9.6591e-05      4680
   6010000   154.49157     -2188.8927      0             -1829.4598     -16.705733    
SHAKE stats (type/ave/delta/count) on step 6020000
Bond:   1   1         1.36113e-06     9360
Angle:  1   109.47    0.000100569     4680
   6020000   156.37775     -2194.4305      0             -1830.6094     -10.80981     
SHAKE stats (type/ave/delta/count) on step 6030000
Bond:   1   1         1.14582e-06     9360
Angle:  1   109.47    9.2377e-05      4680
   6030000   155.12923     -2199.6208      0             -1838.7043     -6.5325279    
SHAKE stats (type/ave/delta/count) on step 6040000
Bond:   1   1         1.24776e-06     9360
Angle:  1   109.47    0.00010843      4680
   6040000   155.44693     -2193.2427      0             -1831.5871     -17.373114    
SHAKE stats (type/ave/delta/count) on step 6050000
Bond:   1   1         1.47716e-06     9360
Angle:  1   109.47    0.000107344     4680
   6050000   154.2061      -2184.9145      0             -1826.1458     -25.087475    
SHAKE stats (type/ave/delta/count) on step 6060000
Bond:   1   1         1.44412e-06     9360
Angle:  1   109.47    9.53976e-05     4680
   6060000   153.73114     -2198.542       0             -1840.8783     -2.3411376    
SHAKE stats (type/ave/delta/count) on step 6070000
Bond:   1   1         1.33327e-06     9360
Angle:  1   109.47    9.75667e-05     4680
   6070000   156.1167      -2189.4515      0             -1826.2377     -9.739302     
SHAKE stats (type/ave/delta/count) on step 6080000
Bond:   1   1         1.35592e-06     9360
Angle:  1   109.47    9.35336e-05     4680
   6080000   155.1055      -2197.6395      0             -1836.7783     -10.576122    
SHAKE stats (type/ave/delta/count) on step 6090000
Bond:   1   1         1.22089e-06     9360
Angle:  1   109.47    9.63453e-05     4680
   6090000   154.87205     -2191.181       0             -1830.8629      1.8512895    
SHAKE stats (type/ave/delta/count) on step 6100000
Bond:   1   1         1.1608e-06      9360
Angle:  1   109.47    0.000100068     4680
   6100000   157.74682     -2182.5307      0             -1815.5243     -23.66115     
SHAKE stats (type/ave/delta/count) on step 6110000
Bond:   1   1         1.50935e-06     9360
Angle:  1   109.47    0.000111378     4680
   6110000   153.88623     -2190.6597      0             -1832.6352     -13.335452    
SHAKE stats (type/ave/delta/count) on step 6120000
Bond:   1   1         1.38247e-06     9360
Angle:  1   109.47    8.69667e-05     4680
   6120000   157.22583     -2197.1336      0             -1831.3394     -9.4875314    
SHAKE stats (type/ave/delta/count) on step 6130000
Bond:   1   1         1.55142e-06     9360
Angle:  1   109.47    0.00012189      4680
   6130000   156.86893     -2192.1749      0             -1827.2109     -11.908442    
SHAKE stats (type/ave/delta/count) on step 6140000
Bond:   1   1         1.41402e-06     9360
Angle:  1   109.47    9.49985e-05     4680
   6140000   154.18904     -2190.8797      0             -1832.1507     -25.69176     
SHAKE stats (type/ave/delta/count) on step 6150000
Bond:   1   1         1.95363e-06     9360
Angle:  1   109.47    0.000114233     4680
   6150000   156.20582     -2191.9406      0             -1828.5194     -7.4688683    
SHAKE stats (type/ave/delta/count) on step 6160000
Bond:   1   1         1.64229e-06     9360
Angle:  1   109.47    0.000104974     4680
   6160000   156.58549     -2184.9899      0             -1820.6854     -16.298522    
SHAKE stats (type/ave/delta/count) on step 6170000
Bond:   1   1         1.26075e-06     9360
Angle:  1   109.47    0.000110726     4680
   6170000   156.63223     -2194.8993      0             -1830.486      -16.28833     
SHAKE stats (type/ave/delta/count) on step 6180000
Bond:   1   1         1.20399e-06     9360
Angle:  1   109.47    9.33469e-05     4680
   6180000   155.60458     -2197.0134      0             -1834.991      -0.12258782   
SHAKE stats (type/ave/delta/count) on step 6190000
Bond:   1   1         1.23003e-06     9360
Angle:  1   109.47    0.000103715     4680
   6190000   155.1358      -2186.8115      0             -1825.8798     -23.315278    
SHAKE stats (type/ave/delta/count) on step 6200000
Bond:   1   1         1.42616e-06     9360
Angle:  1   109.47    0.000112403     4680
   6200000   154.91728     -2206.2982      0             -1845.8749     -27.162575    
SHAKE stats (type/ave/delta/count) on step 6210000
Bond:   1   1         1.29111e-06     9360
Angle:  1   109.47    9.74982e-05     4680
   6210000   155.96876     -2188.1618      0             -1825.2922     -7.2441973    
SHAKE stats (type/ave/delta/count) on step 6220000
Bond:   1   1         1.1774e-06      9360
Angle:  1   109.47    9.20769e-05     4680
   6220000   157.55754     -2194.6657      0             -1828.0997     -23.27907     
SHAKE stats (type/ave/delta/count) on step 6230000
Bond:   1   1         1.14059e-06     9360
Angle:  1   109.47    9.11434e-05     4680
   6230000   155.6094      -2189.9898      0             -1827.9562      2.6853188    
SHAKE stats (type/ave/delta/count) on step 6240000
Bond:   1   1         1.46783e-06     9360
Angle:  1   109.47    9.79029e-05     4680
   6240000   156.82736     -2185.7134      0             -1820.8462     -8.8306851    
SHAKE stats (type/ave/delta/count) on step 6250000
Bond:   1   1         1.32132e-06     9360
Angle:  1   109.47    0.000113595     4680
   6250000   157.31372     -2189.4846      0             -1823.4858     -0.8149144    
SHAKE stats (type/ave/delta/count) on step 6260000
Bond:   1   1         1.58511e-06     9360
Angle:  1   109.47    9.45891e-05     4680
   6260000   157.6265      -2188.8081      0             -1822.0816     -20.818074    
SHAKE stats (type/ave/delta/count) on step 6270000
Bond:   1   1         1.32342e-06     9360
Angle:  1   109.47    0.000104134     4680
   6270000   156.5154      -2199.3893      0             -1835.2478     -11.150196    
SHAKE stats (type/ave/delta/count) on step 6280000
Bond:   1   1         1.70537e-06     9360
Angle:  1   109.47    0.0001057       4680
   6280000   155.09048     -2193.023       0             -1832.1967     -10.004501    
SHAKE stats (type/ave/delta/count) on step 6290000
Bond:   1   1         1.30069e-06     9360
Angle:  1   109.47    9.72296e-05     4680
   6290000   156.23396     -2191.6285      0             -1828.1419     -2.0741914    
SHAKE stats (type/ave/delta/count) on step 6300000
Bond:   1   1         1.42101e-06     9360
Angle:  1   109.47    9.24156e-05     4680
   6300000   157.21442     -2197.9199      0             -1832.1521     -19.03099     
SHAKE stats (type/ave/delta/count) on step 6310000
Bond:   1   1         1.45953e-06     9360
Angle:  1   109.47    9.59362e-05     4680
   6310000   156.96691     -2196.0546      0             -1830.8627     -6.7497635    
SHAKE stats (type/ave/delta/count) on step 6320000
Bond:   1   1         1.3716e-06      9360
Angle:  1   109.47    9.56253e-05     4680
   6320000   156.59554     -2189.655       0             -1825.3271     -12.566314    
SHAKE stats (type/ave/delta/count) on step 6330000
Bond:   1   1         1.194e-06       9360
Angle:  1   109.47    9.72699e-05     4680
   6330000   156.01218     -2186.4929      0             -1823.5222     -10.408545    
SHAKE stats (type/ave/delta/count) on step 6340000
Bond:   1   1         1.35008e-06     9360
Angle:  1   109.47    0.00010054      4680
   6340000   155.28905     -2185.4417      0             -1824.1534     -6.9701436    
SHAKE stats (type/ave/delta/count) on step 6350000
Bond:   1   1         1.5159e-06      9360
Angle:  1   109.47    0.000102771     4680
   6350000   155.82974     -2188.6187      0             -1826.0725     -11.403123    
SHAKE stats (type/ave/delta/count) on step 6360000
Bond:   1   1         1.19133e-06     9360
Angle:  1   109.47    9.3058e-05      4680
   6360000   156.11439     -2183.118       0             -1819.9095      0.078859779  
SHAKE stats (type/ave/delta/count) on step 6370000
Bond:   1   1         1.36376e-06     9360
Angle:  1   109.47    9.53846e-05     4680
   6370000   154.80313     -2187.7025      0             -1827.5448     -3.1640971    
SHAKE stats (type/ave/delta/count) on step 6380000
Bond:   1   1         1.40545e-06     9360
Angle:  1   109.47    0.000101131     4680
   6380000   157.45613     -2186.6256      0             -1820.2955     -26.067924    
SHAKE stats (type/ave/delta/count) on step 6390000
Bond:   1   1         1.20996e-06     9360
Angle:  1   109.47    9.55316e-05     4680
   6390000   155.87376     -2186.7873      0             -1824.1386     -13.438109    
SHAKE stats (type/ave/delta/count) on step 6400000
Bond:   1   1         1.25405e-06     9360
Angle:  1   109.47    9.21044e-05     4680
   6400000   155.13252     -2186.0138      0             -1825.0897     -22.99869     
SHAKE stats (type/ave/delta/count) on step 6410000
Bond:   1   1         1.6558e-06      9360
Angle:  1   109.47    0.00011189      4680
   6410000   156.85111     -2192.0643      0             -1827.1419     -20.645931    
SHAKE stats (type/ave/delta/count) on step 6420000
Bond:   1   1         1.20303e-06     9360
Angle:  1   109.47    9.35776e-05     4680
   6420000   153.87615     -2190.6489      0             -1832.6479     -17.672486    
SHAKE stats (type/ave/delta/count) on step 6430000
Bond:   1   1         1.40558e-06     9360
Angle:  1   109.47    0.000122618     4680
   6430000   156.46363     -2189.5912      0             -1825.5703     -7.6887386    
SHAKE stats (type/ave/delta/count) on step 6440000
Bond:   1   1         1.33818e-06     9360
Angle:  1   109.47    9.75219e-05     4680
   6440000   156.01986     -2187.3934      0             -1824.4049     -1.8156205    
SHAKE stats (type/ave/delta/count) on step 6450000
Bond:   1   1         1.25451e-06     9360
Angle:  1   109.47    9.12867e-05     4680
   6450000   153.50877     -2187.3254      0             -1830.1791     -10.96326     
SHAKE stats (type/ave/delta/count) on step 6460000
Bond:   1   1         1.34898e-06     9360
Angle:  1   109.47    0.000107201     4680
   6460000   156.40642     -2180.7353      0             -1816.8474     -3.9256741    
SHAKE stats (type/ave/delta/count) on step 6470000
Bond:   1   1         1.32474e-06     9360
Angle:  1   109.47    9.51133e-05     4680
   6470000   154.34629     -2194.2042      0             -1835.1093     -23.22037     
SHAKE stats (type/ave/delta/count) on step 6480000
Bond:   1   1         1.25693e-06     9360
Angle:  1   109.47    9.52245e-05     4680
   6480000   154.185       -2189.0244      0             -1830.3048     -8.9402123    
SHAKE stats (type/ave/delta/count) on step 6490000
Bond:   1   1         1.80231e-06     9360
Angle:  1   109.47    0.000116791     4680
   6490000   156.45471     -2183.3447      0             -1819.3444     -4.1196533    
SHAKE stats (type/ave/delta/count) on step 6500000
Bond:   1   1         1.20063e-06     9360
Angle:  1   109.47    9.52513e-05     4680
   6500000   155.84021     -2193.7678      0             -1831.1973     -5.1798689    
SHAKE stats (type/ave/delta/count) on step 6510000
Bond:   1   1         1.22744e-06     9360
Angle:  1   109.47    9.10857e-05     4680
   6510000   155.44059     -2181.6276      0             -1819.9867     -11.432789    
SHAKE stats (type/ave/delta/count) on step 6520000
Bond:   1   1         1.1628e-06      9360
Angle:  1   109.47    9.71254e-05     4680
   6520000   156.06663     -2189.496       0             -1826.3987     -0.37918956   
SHAKE stats (type/ave/delta/count) on step 6530000
Bond:   1   1         1.20998e-06     9360
Angle:  1   109.47    9.27926e-05     4680
   6530000   155.27253     -2190.2934      0             -1829.0436      2.0566957    
SHAKE stats (type/ave/delta/count) on step 6540000
Bond:   1   1         1.43994e-06     9360
Angle:  1   109.47    9.24806e-05     4680
   6540000   155.41713     -2188.2054      0             -1826.6191     -21.553762    
SHAKE stats (type/ave/delta/count) on step 6550000
Bond:   1   1         1.17448e-06     9360
Angle:  1   109.47    9.20468e-05     4680
   6550000   155.60319     -2194.4101      0             -1832.3909     -5.1603266    
SHAKE stats (type/ave/delta/count) on step 6560000
Bond:   1   1         1.82861e-06     9360
Angle:  1   109.47    0.000126708     4680
   6560000   153.63664     -2185.3818      0             -1827.9379     -14.798618    
SHAKE stats (type/ave/delta/count) on step 6570000
Bond:   1   1         1.26381e-06     9360
Angle:  1   109.47    9.38053e-05     4680
   6570000   156.40977     -2194.4676      0             -1830.572      -20.009957    
SHAKE stats (type/ave/delta/count) on step 6580000
Bond:   1   1         1.45167e-06     9360
Angle:  1   109.47    0.000109181     4680
   6580000   155.01964     -2190.127       0             -1829.4656     -8.1842774    
SHAKE stats (type/ave/delta/count) on step 6590000
Bond:   1   1         1.49555e-06     9360
Angle:  1   109.47    0.00011116      4680
   6590000   157.96429     -2195.8697      0             -1828.3573     -16.834983    
SHAKE stats (type/ave/delta/count) on step 6600000
Bond:   1   1         1.29289e-06     9360
Angle:  1   109.47    0.00011553      4680
   6600000   155.13579     -2199.5507      0             -1838.619      -24.00995     
SHAKE stats (type/ave/delta/count) on step 6610000
Bond:   1   1         1.3118e-06      9360
Angle:  1   109.47    0.000107745     4680
   6610000   155.18796     -2199.8755      0             -1838.8225      3.3426211    
SHAKE stats (type/ave/delta/count) on step 6620000
Bond:   1   1         1.18897e-06     9360
Angle:  1   109.47    0.000110682     4680
   6620000   158.653       -2187.4361      0             -1818.3215     -3.1051294    
SHAKE stats (type/ave/delta/count) on step 6630000
Bond:   1   1         1.25062e-06     9360
Angle:  1   109.47    0.000106635     4680
   6630000   157.44059     -2191.1287      0             -1824.8348     -4.9390694    
SHAKE stats (type/ave/delta/count) on step 6640000
Bond:   1   1         1.22852e-06     9360
Angle:  1   109.47    9.00641e-05     4680
   6640000   155.32452     -2182.1812      0             -1820.8104     -6.6209206    
SHAKE stats (type/ave/delta/count) on step 6650000
Bond:   1   1         1.24911e-06     9360
Angle:  1   109.47    9.29693e-05     4680
   6650000   156.47038     -2184.7094      0             -1820.6727     -5.4391437    
SHAKE stats (type/ave/delta/count) on step 6660000
Bond:   1   1         1.46121e-06     9360
Angle:  1   109.47    0.000112485     4680
   6660000   157.13721     -2194.985       0             -1829.3969     -6.047032     
SHAKE stats (type/ave/delta/count) on step 6670000
Bond:   1   1         1.52685e-06     9360
Angle:  1   109.47    9.46468e-05     4680
   6670000   154.42028     -2195.9846      0             -1836.7176      9.088504     
SHAKE stats (type/ave/delta/count) on step 6680000
Bond:   1   1         1.31647e-06     9360
Angle:  1   109.47    9.83858e-05     4680
   6680000   155.60702     -2188.4502      0             -1826.4222     -13.610053    
SHAKE stats (type/ave/delta/count) on step 6690000
Bond:   1   1         1.25411e-06     9360
Angle:  1   109.47    0.00010418      4680
   6690000   154.6374      -2187.692       0             -1827.9198     -10.319835    
SHAKE stats (type/ave/delta/count) on step 6700000
Bond:   1   1         1.41955e-06     9360
Angle:  1   109.47    9.29731e-05     4680
   6700000   154.50411     -2196.4946      0             -1837.0325     -9.2378894    
SHAKE stats (type/ave/delta/count) on step 6710000
Bond:   1   1         1.499e-06       9360
Angle:  1   109.47    0.000116151     4680
   6710000   154.92583     -2192.5354      0             -1832.0922     -12.689068    
SHAKE stats (type/ave/delta/count) on step 6720000
Bond:   1   1         1.12769e-06     9360
Angle:  1   109.47    9.98094e-05     4680
   6720000   156.92105     -2183.3149      0             -1818.2297     -8.4632967    
SHAKE stats (type/ave/delta/count) on step 6730000
Bond:   1   1         1.31688e-06     9360
Angle:  1   109.47    0.000100647     4680
   6730000   154.64064     -2188.4006      0             -1828.6209     -12.921086    
SHAKE stats (type/ave/delta/count) on step 6740000
Bond:   1   1         1.27069e-06     9360
Angle:  1   109.47    0.000102037     4680
   6740000   155.45641     -2201.4936      0             -1839.8159     -9.3490061    
SHAKE stats (type/ave/delta/count) on step 6750000
Bond:   1   1         1.11988e-06     9360
Angle:  1   109.47    9.28284e-05     4680
   6750000   156.76356     -2191.0743      0             -1826.3555     -21.216536    
SHAKE stats (type/ave/delta/count) on step 6760000
Bond:   1   1         1.35296e-06     9360
Angle:  1   109.47    9.15085e-05     4680
   6760000   157.31037     -2190.9808      0             -1824.9898     -5.2739636    
SHAKE stats (type/ave/delta/count) on step 6770000
Bond:   1   1         1.09241e-06     9360
Angle:  1   109.47    9.90894e-05     4680
   6770000   158.31443     -2187.9674      0             -1819.6404      6.4072153    
SHAKE stats (type/ave/delta/count) on step 6780000
Bond:   1   1         1.24932e-06     9360
Angle:  1   109.47    0.000105539     4680
   6780000   154.42116     -2196.2972      0             -1837.0281     -6.3458264    
SHAKE stats (type/ave/delta/count) on step 6790000
Bond:   1   1         1.22373e-06     9360
Angle:  1   109.47    0.000108988     4680
   6790000   155.9439      -2195.543       0             -1832.7312     -9.1555023    
SHAKE stats (type/ave/delta/count) on step 6800000
Bond:   1   1         1.31844e-06     9360
Angle:  1   109.47    0.000103612     4680
   6800000   156.55621     -2188.5722      0             -1824.3358     -16.514658    
SHAKE stats (type/ave/delta/count) on step 6810000
Bond:   1   1         1.27607e-06     9360
Angle:  1   109.47    0.000109623     4680
   6810000   156.66079     -2189.7462      0             -1825.2665     -1.0395294    
SHAKE stats (type/ave/delta/count) on step 6820000
Bond:   1   1         1.41212e-06     9360
Angle:  1   109.47    0.000102329     4680
   6820000   156.79952     -2188.9857      0             -1824.1833     -14.731504    
SHAKE stats (type/ave/delta/count) on step 6830000
Bond:   1   1         1.31173e-06     9360
Angle:  1   109.47    8.8514e-05      4680
   6830000   156.41564     -2187.5514      0             -1823.6421     -16.181099    
SHAKE stats (type/ave/delta/count) on step 6840000
Bond:   1   1         1.16462e-06     9360
Angle:  1   109.47    0.000103634     4680
   6840000   155.21658     -2187.972       0             -1826.8524     -9.7462628    
SHAKE stats (type/ave/delta/count) on step 6850000
Bond:   1   1         1.40295e-06     9360
Angle:  1   109.47    0.000102862     4680
   6850000   153.97773     -2187.9454      0             -1829.708      -25.481148    
SHAKE stats (type/ave/delta/count) on step 6860000
Bond:   1   1         1.18607e-06     9360
Angle:  1   109.47    9.88418e-05     4680
   6860000   154.56955     -2198.4414      0             -1838.8271     -5.7748756    
SHAKE stats (type/ave/delta/count) on step 6870000
Bond:   1   1         1.09908e-06     9360
Angle:  1   109.47    0.000104034     4680
   6870000   155.25738     -2199.999       0             -1838.7844     -4.443328     
SHAKE stats (type/ave/delta/count) on step 6880000
Bond:   1   1         1.2679e-06      9360
Angle:  1   109.47    9.4441e-05      4680
   6880000   157.60079     -2189.5286      0             -1822.862      -7.9998306    
SHAKE stats (type/ave/delta/count) on step 6890000
Bond:   1   1         1.37541e-06     9360
Angle:  1   109.47    9.45042e-05     4680
   6890000   155.89478     -2189.2129      0             -1826.5154     -23.817124    
SHAKE stats (type/ave/delta/count) on step 6900000
Bond:   1   1         1.70329e-06     9360
Angle:  1   109.47    0.000108839     4680
   6900000   156.0981      -2192.6981      0             -1829.5275     -20.624676    
SHAKE stats (type/ave/delta/count) on step 6910000
Bond:   1   1         1.57324e-06     9360
Angle:  1   109.47    9.6862e-05      4680
   6910000   158.44296     -2188.8081      0             -1820.1821     -12.512582    
SHAKE stats (type/ave/delta/count) on step 6920000
Bond:   1   1         1.45128e-06     9360
Angle:  1   109.47    9.48948e-05     4680
   6920000   155.53931     -2178.811       0             -1816.9405     -9.4127758    
SHAKE stats (type/ave/delta/count) on step 6930000
Bond:   1   1         1.42107e-06     9360
Angle:  1   109.47    0.000108216     4680
   6930000   155.08368     -2199.6805      0             -1838.8701     -9.4287214    
SHAKE stats (type/ave/delta/count) on step 6940000
Bond:   1   1         1.44507e-06     9360
Angle:  1   109.47    9.60855e-05     4680
   6940000   155.90842     -2196.7348      0             -1834.0055     -6.0431494    
SHAKE stats (type/ave/delta/count) on step 6950000
Bond:   1   1         1.32738e-06     9360
Angle:  1   109.47    0.000107912     4680
   6950000   159.92384     -2190.8269      0             -1818.7556     -2.486776     
SHAKE stats (type/ave/delta/count) on step 6960000
Bond:   1   1         1.24424e-06     9360
Angle:  1   109.47    0.000114654     4680
   6960000   155.40128     -2189.7567      0             -1828.2074     -16.315815    
SHAKE stats (type/ave/delta/count) on step 6970000
Bond:   1   1         1.49041e-06     9360
Angle:  1   109.47    0.000109478     4680
   6970000   154.88097     -2195.3449      0             -1835.0061     -16.340692    
SHAKE stats (type/ave/delta/count) on step 6980000
Bond:   1   1         1.54137e-06     9360
Angle:  1   109.47    0.000110285     4680
   6980000   155.9211      -2186.2719      0             -1823.5131     -21.832842    
SHAKE stats (type/ave/delta/count) on step 6990000
Bond:   1   1         1.54974e-06     9360
Angle:  1   109.47    0.000113003     4680
   6990000   155.78658     -2188.9031      0             -1826.4574     -0.77772567   
SHAKE stats (type/ave/delta/count) on step 7000000
Bond:   1   1         1.20668e-06     9360
Angle:  1   109.47    0.000106634     4680
   7000000   158.51591     -2190.865       0             -1822.0693     -14.844457    
SHAKE stats (type/ave/delta/count) on step 7010000
Bond:   1   1         1.61414e-06     9360
Angle:  1   109.47    0.000103385     4680
   7010000   156.5081      -2190.4753      0             -1826.3509     -3.7138755    
SHAKE stats (type/ave/delta/count) on step 7020000
Bond:   1   1         1.40675e-06     9360
Angle:  1   109.47    0.000101712     4680
   7020000   155.08396     -2188.1223      0             -1827.3112     -18.703402    
SHAKE stats (type/ave/delta/count) on step 7030000
Bond:   1   1         1.29232e-06     9360
Angle:  1   109.47    9.64151e-05     4680
   7030000   153.3615      -2201.0281      0             -1844.2244     -21.484839    
SHAKE stats (type/ave/delta/count) on step 7040000
Bond:   1   1         1.56945e-06     9360
Angle:  1   109.47    0.00011036      4680
   7040000   156.87216     -2193.1026      0             -1828.1311     -9.3482209    
SHAKE stats (type/ave/delta/count) on step 7050000
Bond:   1   1         1.48959e-06     9360
Angle:  1   109.47    9.39816e-05     4680
   7050000   155.79591     -2185.7478      0             -1823.2803     -24.822109    
SHAKE stats (type/ave/delta/count) on step 7060000
Bond:   1   1         1.26232e-06     9360
Angle:  1   109.47    9.88395e-05     4680
   7060000   156.9611      -2184.8584      0             -1819.68       -6.1979582    
SHAKE stats (type/ave/delta/count) on step 7070000
Bond:   1   1         1.75373e-06     9360
Angle:  1   109.47    0.000120727     4680
   7070000   154.96485     -2193.7775      0             -1833.2435     -10.127699    
SHAKE stats (type/ave/delta/count) on step 7080000
Bond:   1   1         1.34521e-06     9360
Angle:  1   109.47    9.8311e-05      4680
   7080000   156.75721     -2190.6898      0             -1825.9858     -8.487038     
SHAKE stats (type/ave/delta/count) on step 7090000
Bond:   1   1         1.38403e-06     9360
Angle:  1   109.47    9.4935e-05      4680
   7090000   153.89655     -2179.5214      0             -1821.4729     -17.03776     
SHAKE stats (type/ave/delta/count) on step 7100000
Bond:   1   1         1.37503e-06     9360
Angle:  1   109.47    9.20087e-05     4680
   7100000   157.17109     -2185.6444      0             -1819.9775     -17.624098    
SHAKE stats (type/ave/delta/count) on step 7110000
Bond:   1   1         1.3122e-06      9360
Angle:  1   109.47    9.51722e-05     4680
   7110000   153.80097     -2187.0874      0             -1829.2612     -13.548491    
SHAKE stats (type/ave/delta/count) on step 7120000
Bond:   1   1         1.34835e-06     9360
Angle:  1   109.47    0.000130058     4680
   7120000   157.45765     -2189.3439      0             -1823.0103     -22.477839    
SHAKE stats (type/ave/delta/count) on step 7130000
Bond:   1   1         1.26669e-06     9360
Angle:  1   109.47    0.000102433     4680
   7130000   157.64216     -2195.5545      0             -1828.7916     -19.243318    
SHAKE stats (type/ave/delta/count) on step 7140000
Bond:   1   1         1.38789e-06     9360
Angle:  1   109.47    9.85475e-05     4680
   7140000   157.51487     -2193.0039      0             -1826.5371     -8.7242597    
SHAKE stats (type/ave/delta/count) on step 7150000
Bond:   1   1         1.23669e-06     9360
Angle:  1   109.47    0.000103739     4680
   7150000   157.46081     -2186.6164      0             -1820.2754     -20.364192    
SHAKE stats (type/ave/delta/count) on step 7160000
Bond:   1   1         1.20548e-06     9360
Angle:  1   109.47    9.31848e-05     4680
   7160000   153.50599     -2193.2777      0             -1836.1378     -16.160719    
SHAKE stats (type/ave/delta/count) on step 7170000
Bond:   1   1         1.30788e-06     9360
Angle:  1   109.47    0.000111326     4680
   7170000   156.3587      -2182.9821      0             -1819.2053     -3.4354867    
SHAKE stats (type/ave/delta/count) on step 7180000
Bond:   1   1         1.44949e-06     9360
Angle:  1   109.47    9.51729e-05     4680
   7180000   156.08465     -2190.7269      0             -1827.5876      3.0776314    
SHAKE stats (type/ave/delta/count) on step 7190000
Bond:   1   1         1.27823e-06     9360
Angle:  1   109.47    9.35702e-05     4680
   7190000   155.49906     -2186.7774      0             -1825.0005     -11.804581    
SHAKE stats (type/ave/delta/count) on step 7200000
Bond:   1   1         1.31241e-06     9360
Angle:  1   109.47    9.79648e-05     4680
   7200000   156.88487     -2181.5635      0             -1816.5625     -13.809784    
SHAKE stats (type/ave/delta/count) on step 7210000
Bond:   1   1         1.29565e-06     9360
Angle:  1   109.47    0.000105135     4680
   7210000   157.68425     -2190.8776      0             -1824.0168      3.4126866    
SHAKE stats (type/ave/delta/count) on step 7220000
Bond:   1   1         1.13602e-06     9360
Angle:  1   109.47    9.48082e-05     4680
   7220000   155.39001     -2197.9868      0             -1836.4637     -14.942097    
SHAKE stats (type/ave/delta/count) on step 7230000
Bond:   1   1         1.45536e-06     9360
Angle:  1   109.47    0.000110491     4680
   7230000   158.07159     -2189.5348      0             -1821.7728     -10.557089    
SHAKE stats (type/ave/delta/count) on step 7240000
Bond:   1   1         1.19615e-06     9360
Angle:  1   109.47    0.00011455      4680
   7240000   158.62492     -2184.9084      0             -1815.859       0.10909828   
SHAKE stats (type/ave/delta/count) on step 7250000
Bond:   1   1         1.30275e-06     9360
Angle:  1   109.47    0.000125543     4680
   7250000   157.71        -2195.1427      0             -1828.2219     -6.7274682    
SHAKE stats (type/ave/delta/count) on step 7260000
Bond:   1   1         1.45848e-06     9360
Angle:  1   109.47    0.000103332     4680
   7260000   157.57294     -2192.6276      0             -1826.0257     -5.8109599    
SHAKE stats (type/ave/delta/count) on step 7270000
Bond:   1   1         1.53156e-06     9360
Angle:  1   109.47    0.000107509     4680
   7270000   156.08558     -2190.8329      0             -1827.6915     -16.654661    
SHAKE stats (type/ave/delta/count) on step 7280000
Bond:   1   1         1.39278e-06     9360
Angle:  1   109.47    9.45831e-05     4680
   7280000   153.35536     -2182.2232      0             -1825.4337      1.7331241    
SHAKE stats (type/ave/delta/count) on step 7290000
Bond:   1   1         1.26698e-06     9360
Angle:  1   109.47    0.000102125     4680
   7290000   154.8936      -2190.6309      0             -1830.2627     -19.729297    
SHAKE stats (type/ave/delta/count) on step 7300000
Bond:   1   1         1.28202e-06     9360
Angle:  1   109.47    0.000102897     4680
   7300000   157.12238     -2182.9022      0             -1817.3486     -11.927048    
SHAKE stats (type/ave/delta/count) on step 7310000
Bond:   1   1         1.30602e-06     9360
Angle:  1   109.47    0.000109247     4680
   7310000   157.05164     -2186.8889      0             -1821.4999     -17.43648     
SHAKE stats (type/ave/delta/count) on step 7320000
Bond:   1   1         1.46389e-06     9360
Angle:  1   109.47    9.68177e-05     4680
   7320000   156.6395      -2190.5855      0             -1826.1553     -14.687431    
SHAKE stats (type/ave/delta/count) on step 7330000
Bond:   1   1         1.54883e-06     9360
Angle:  1   109.47    0.000106707     4680
   7330000   155.59246     -2190.8968      0             -1828.9026     -15.102188    
SHAKE stats (type/ave/delta/count) on step 7340000
Bond:   1   1         1.24259e-06     9360
Angle:  1   109.47    0.000102596     4680
   7340000   155.71893     -2174.2916      0             -1812.0032     -16.059189    
SHAKE stats (type/ave/delta/count) on step 7350000
Bond:   1   1         1.22797e-06     9360
Angle:  1   109.47    9.43736e-05     4680
   7350000   155.59457     -2196.7391      0             -1834.74       -21.145659    
SHAKE stats (type/ave/delta/count) on step 7360000
Bond:   1   1         1.29498e-06     9360
Angle:  1   109.47    0.000135533     4680
   7360000   156.81763     -2191.5289      0             -1826.6843      3.3546522    
SHAKE stats (type/ave/delta/count) on step 7370000
Bond:   1   1         1.31885e-06     9360
Angle:  1   109.47    9.60175e-05     4680
   7370000   156.12994     -2192.7933      0             -1829.5486     -9.3343236    
SHAKE stats (type/ave/delta/count) on step 7380000
Bond:   1   1         1.26621e-06     9360
Angle:  1   109.47    0.000112355     4680
   7380000   156.99103     -2193.9724      0             -1828.7244     -12.989006    
SHAKE stats (type/ave/delta/count) on step 7390000
Bond:   1   1         1.45914e-06     9360
Angle:  1   109.47    0.000108566     4680
   7390000   156.5735      -2187.8535      0             -1823.5769     -16.775683    
SHAKE stats (type/ave/delta/count) on step 7400000
Bond:   1   1         1.3568e-06      9360
Angle:  1   109.47    9.38566e-05     4680
   7400000   155.46793     -2183.0682      0             -1821.3637      9.5916227    
SHAKE stats (type/ave/delta/count) on step 7410000
Bond:   1   1         1.52437e-06     9360
Angle:  1   109.47    9.76606e-05     4680
   7410000   153.52006     -2191.4517      0             -1834.2791      1.0714339    
SHAKE stats (type/ave/delta/count) on step 7420000
Bond:   1   1         1.45655e-06     9360
Angle:  1   109.47    9.17793e-05     4680
   7420000   155.49505     -2185.8329      0             -1824.0654     -18.293505    
SHAKE stats (type/ave/delta/count) on step 7430000
Bond:   1   1         1.24855e-06     9360
Angle:  1   109.47    9.35539e-05     4680
   7430000   156.44675     -2195.7307      0             -1831.749      -20.248759    
SHAKE stats (type/ave/delta/count) on step 7440000
Bond:   1   1         1.2307e-06      9360
Angle:  1   109.47    9.88019e-05     4680
   7440000   153.9024      -2191.4905      0             -1833.4283     -15.450777    
SHAKE stats (type/ave/delta/count) on step 7450000
Bond:   1   1         1.68823e-06     9360
Angle:  1   109.47    0.000129019     4680
   7450000   156.24143     -2192.0221      0             -1828.5181     -0.84621239   
SHAKE stats (type/ave/delta/count) on step 7460000
Bond:   1   1         1.32404e-06     9360
Angle:  1   109.47    9.57247e-05     4680
   7460000   158.52893     -2184.8996      0             -1816.0736      2.1394325    
SHAKE stats (type/ave/delta/count) on step 7470000
Bond:   1   1         1.34458e-06     9360
Angle:  1   109.47    9.46407e-05     4680
   7470000   157.72378     -2185.517       0             -1818.5642     -9.7449229    
SHAKE stats (type/ave/delta/count) on step 7480000
Bond:   1   1         1.27516e-06     9360
Angle:  1   109.47    0.000100961     4680
   7480000   155.26547     -2193.5976      0             -1832.3642     -17.283273    
SHAKE stats (type/ave/delta/count) on step 7490000
Bond:   1   1         1.3631e-06      9360
Angle:  1   109.47    9.30399e-05     4680
   7490000   159.48743     -2194.8344      0             -1823.7784     -19.035042    
SHAKE stats (type/ave/delta/count) on step 7500000
Bond:   1   1         1.30256e-06     9360
Angle:  1   109.47    0.000119869     4680
   7500000   156.03499     -2190.8794      0             -1827.8557     -16.998094    
SHAKE stats (type/ave/delta/count) on step 7510000
Bond:   1   1         1.23396e-06     9360
Angle:  1   109.47    9.84793e-05     4680
   7510000   154.6311      -2188.697       0             -1828.9395      4.4788349    
SHAKE stats (type/ave/delta/count) on step 7520000
Bond:   1   1         1.43212e-06     9360
Angle:  1   109.47    9.66052e-05     4680
   7520000   155.01716     -2187.6034      0             -1826.9477     -8.3462227    
SHAKE stats (type/ave/delta/count) on step 7530000
Bond:   1   1         1.28797e-06     9360
Angle:  1   109.47    9.15392e-05     4680
   7530000   158.37613     -2203.4335      0             -1834.9629      8.0810202    
SHAKE stats (type/ave/delta/count) on step 7540000
Bond:   1   1         1.24307e-06     9360
Angle:  1   109.47    0.00010602      4680
   7540000   156.72213     -2193.5992      0             -1828.9768     -16.129166    
SHAKE stats (type/ave/delta/count) on step 7550000
Bond:   1   1         1.21962e-06     9360
Angle:  1   109.47    0.000114582     4680
   7550000   155.07379     -2196.7831      0             -1835.9957     -16.890316    
SHAKE stats (type/ave/delta/count) on step 7560000
Bond:   1   1         1.15915e-06     9360
Angle:  1   109.47    9.15036e-05     4680
   7560000   157.02408     -2192.8219      0             -1827.497      -18.037065    
SHAKE stats (type/ave/delta/count) on step 7570000
Bond:   1   1         1.38109e-06     9360
Angle:  1   109.47    0.000100192     4680
   7570000   157.56498     -2191.4296      0             -1824.8462     -7.0033937    
SHAKE stats (type/ave/delta/count) on step 7580000
Bond:   1   1         1.84005e-06     9360
Angle:  1   109.47    0.000130845     4680
   7580000   153.47799     -2191.9501      0             -1834.8754     -4.366449     
SHAKE stats (type/ave/delta/count) on step 7590000
Bond:   1   1         1.46472e-06     9360
Angle:  1   109.47    0.000104059     4680
   7590000   154.78982     -2188.2122      0             -1828.0854     -14.657529    
SHAKE stats (type/ave/delta/count) on step 7600000
Bond:   1   1         1.19028e-06     9360
Angle:  1   109.47    9.48676e-05     4680
   7600000   156.70719     -2189.4326      0             -1824.845      -12.854094    
SHAKE stats (type/ave/delta/count) on step 7610000
Bond:   1   1         1.19703e-06     9360
Angle:  1   109.47    0.000104776     4680
   7610000   156.35834     -2182.0961      0             -1818.3201     -6.8776083    
SHAKE stats (type/ave/delta/count) on step 7620000
Bond:   1   1         1.37347e-06     9360
Angle:  1   109.47    9.39891e-05     4680
   7620000   156.04014     -2192.5472      0             -1829.5115     -21.562057    
SHAKE stats (type/ave/delta/count) on step 7630000
Bond:   1   1         1.46136e-06     9360
Angle:  1   109.47    0.000102134     4680
   7630000   154.72783     -2194.338       0             -1834.3555      1.4532642    
SHAKE stats (type/ave/delta/count) on step 7640000
Bond:   1   1         1.28378e-06     9360
Angle:  1   109.47    9.32655e-05     4680
   7640000   157.14077     -2199.5789      0             -1833.9825     -13.142515    
SHAKE stats (type/ave/delta/count) on step 7650000
Bond:   1   1         1.40192e-06     9360
Angle:  1   109.47    0.000101304     4680
   7650000   156.38998     -2183.5427      0             -1819.693      -17.519361    
SHAKE stats (type/ave/delta/count) on step 7660000
Bond:   1   1         1.30433e-06     9360
Angle:  1   109.47    9.87051e-05     4680
   7660000   153.31185     -2191.0534      0             -1834.3652     -24.401453    
SHAKE stats (type/ave/delta/count) on step 7670000
Bond:   1   1         1.21306e-06     9360
Angle:  1   109.47    9.64799e-05     4680
   7670000   158.16412     -2196.0925      0             -1828.1153      3.7954581    
SHAKE stats (type/ave/delta/count) on step 7680000
Bond:   1   1         1.32162e-06     9360
Angle:  1   109.47    0.0001008       4680
   7680000   155.02409     -2197.2614      0             -1836.5896     -8.0065745    
SHAKE stats (type/ave/delta/count) on step 7690000
Bond:   1   1         1.62982e-06     9360
Angle:  1   109.47    0.000107549     4680
   7690000   155.80241     -2193.1569      0             -1830.6743     -0.39993265   
SHAKE stats (type/ave/delta/count) on step 7700000
Bond:   1   1         1.39943e-06     9360
Angle:  1   109.47    0.000110917     4680
   7700000   158.36363     -2187.9503      0             -1819.5089      2.1711265    
SHAKE stats (type/ave/delta/count) on step 7710000
Bond:   1   1         1.7043e-06      9360
Angle:  1   109.47    0.000121477     4680
   7710000   156.10983     -2192.0742      0             -1828.8763     -2.9243182    
SHAKE stats (type/ave/delta/count) on step 7720000
Bond:   1   1         1.30971e-06     9360
Angle:  1   109.47    0.000101971     4680
   7720000   152.56401     -2185.1959      0             -1830.2476      0.67030981   
SHAKE stats (type/ave/delta/count) on step 7730000
Bond:   1   1         1.20089e-06     9360
Angle:  1   109.47    9.79514e-05     4680
   7730000   156.18698     -2189.5859      0             -1826.2085     -4.1997679    
SHAKE stats (type/ave/delta/count) on step 7740000
Bond:   1   1         1.12968e-06     9360
Angle:  1   109.47    9.95229e-05     4680
   7740000   154.87312     -2185.2206      0             -1824.9001     -18.310757    
SHAKE stats (type/ave/delta/count) on step 7750000
Bond:   1   1         1.25229e-06     9360
Angle:  1   109.47    9.9162e-05      4680
   7750000   156.27742     -2191.4139      0             -1827.8262     -16.423732    
SHAKE stats (type/ave/delta/count) on step 7760000
Bond:   1   1         1.36911e-06     9360
Angle:  1   109.47    9.88105e-05     4680
   7760000   158.29739     -2196.4763      0             -1828.189      -15.580397    
SHAKE stats (type/ave/delta/count) on step 7770000
Bond:   1   1         1.35413e-06     9360
Angle:  1   109.47    0.000103973     4680
   7770000   152.94456     -2185.9729      0             -1830.1393     -25.897388    
SHAKE stats (type/ave/delta/count) on step 7780000
Bond:   1   1         1.28453e-06     9360
Angle:  1   109.47    0.000107423     4680
   7780000   156.33183     -2188.5356      0             -1824.8213     -17.756927    
SHAKE stats (type/ave/delta/count) on step 7790000
Bond:   1   1         1.35048e-06     9360
Angle:  1   109.47    0.000107961     4680
   7790000   154.52343     -2196.5353      0             -1837.0283      0.73773315   
SHAKE stats (type/ave/delta/count) on step 7800000
Bond:   1   1         2.18056e-06     9360
Angle:  1   109.47    0.000137016     4680
   7800000   157.59634     -2188.7354      0             -1822.0791     -15.221466    
SHAKE stats (type/ave/delta/count) on step 7810000
Bond:   1   1         1.25957e-06     9360
Angle:  1   109.47    9.43914e-05     4680
   7810000   154.46034     -2186.4685      0             -1827.1083     -13.257913    
SHAKE stats (type/ave/delta/count) on step 7820000
Bond:   1   1         1.19286e-06     9360
Angle:  1   109.47    9.18751e-05     4680
   7820000   155.56901     -2191.4568      0             -1829.5172     -19.948779    
SHAKE stats (type/ave/delta/count) on step 7830000
Bond:   1   1         1.41976e-06     9360
Angle:  1   109.47    0.000113545     4680
   7830000   156.43259     -2190.0339      0             -1826.0852     -13.154794    
SHAKE stats (type/ave/delta/count) on step 7840000
Bond:   1   1         1.40568e-06     9360
Angle:  1   109.47    9.79992e-05     4680
   7840000   157.79491     -2185.8652      0             -1818.747      -5.9775725    
SHAKE stats (type/ave/delta/count) on step 7850000
Bond:   1   1         1.24733e-06     9360
Angle:  1   109.47    0.000109235     4680
   7850000   155.45345     -2192.9981      0             -1831.3273     -28.243972    
SHAKE stats (type/ave/delta/count) on step 7860000
Bond:   1   1         1.25018e-06     9360
Angle:  1   109.47    9.22426e-05     4680
   7860000   155.36682     -2191.4796      0             -1830.0105     -30.809825    
SHAKE stats (type/ave/delta/count) on step 7870000
Bond:   1   1         1.22285e-06     9360
Angle:  1   109.47    9.92007e-05     4680
   7870000   155.36157     -2187.1221      0             -1825.6651     -13.313538    
SHAKE stats (type/ave/delta/count) on step 7880000
Bond:   1   1         1.28802e-06     9360
Angle:  1   109.47    9.62815e-05     4680
   7880000   158.19369     -2190.1512      0             -1822.1051     -9.8086376    
SHAKE stats (type/ave/delta/count) on step 7890000
Bond:   1   1         1.20178e-06     9360
Angle:  1   109.47    0.000102494     4680
   7890000   155.47676     -2192.8999      0             -1831.1749     -12.382314    
SHAKE stats (type/ave/delta/count) on step 7900000
Bond:   1   1         1.30439e-06     9360
Angle:  1   109.47    8.96632e-05     4680
   7900000   155.05916     -2194.888       0             -1834.1346     -17.84017     
SHAKE stats (type/ave/delta/count) on step 7910000
Bond:   1   1         1.63132e-06     9360
Angle:  1   109.47    0.000111908     4680
   7910000   156.94513     -2191.0603      0             -1825.9191     -15.180982    
SHAKE stats (type/ave/delta/count) on step 7920000
Bond:   1   1         1.53772e-06     9360
Angle:  1   109.47    0.000100187     4680
   7920000   156.53629     -2187.0686      0             -1822.8786     -24.133514    
SHAKE stats (type/ave/delta/count) on step 7930000
Bond:   1   1         1.27302e-06     9360
Angle:  1   109.47    0.000111179     4680
   7930000   153.03009     -2190.0169      0             -1833.9842     -4.0432441    
SHAKE stats (type/ave/delta/count) on step 7940000
Bond:   1   1         1.57498e-06     9360
Angle:  1   109.47    0.000126907     4680
   7940000   155.79441     -2195.1298      0             -1832.6658     -4.2403929    
SHAKE stats (type/ave/delta/count) on step 7950000
Bond:   1   1         1.2266e-06      9360
Angle:  1   109.47    9.70901e-05     4680
   7950000   158.48168     -2200.0679      0             -1831.3518     -4.1473368    
SHAKE stats (type/ave/delta/count) on step 7960000
Bond:   1   1         1.24428e-06     9360
Angle:  1   109.47    9.72139e-05     4680
   7960000   157.04044     -2188.6019      0             -1823.239      -17.634819    
SHAKE stats (type/ave/delta/count) on step 7970000
Bond:   1   1         2.12261e-06     9360
Angle:  1   109.47    0.000132342     4680
   7970000   156.02795     -2195.5165      0             -1832.5091     -11.584243    
SHAKE stats (type/ave/delta/count) on step 7980000
Bond:   1   1         1.12282e-06     9360
Angle:  1   109.47    9.07462e-05     4680
   7980000   155.52589     -2191.719       0             -1829.8797     -2.7668053    
SHAKE stats (type/ave/delta/count) on step 7990000
Bond:   1   1         1.1747e-06      9360
Angle:  1   109.47    9.19324e-05     4680
   7990000   155.31501     -2189.2018      0             -1827.8531     -13.757669    
SHAKE stats (type/ave/delta/count) on step 8000000
Bond:   1   1         1.29488e-06     9360
Angle:  1   109.47    9.70475e-05     4680
   8000000   156.19545     -2191.3749      0             -1827.9778     -10.86641     
SHAKE stats (type/ave/delta/count) on step 8010000
Bond:   1   1         1.22801e-06     9360
Angle:  1   109.47    0.000102035     4680
   8010000   153.53066     -2185.2499      0             -1828.0526     -8.6062327    
SHAKE stats (type/ave/delta/count) on step 8020000
Bond:   1   1         1.36839e-06     9360
Angle:  1   109.47    9.49243e-05     4680
   8020000   156.6926      -2192.8686      0             -1828.3149     -0.94937162   
SHAKE stats (type/ave/delta/count) on step 8030000
Bond:   1   1         1.07645e-06     9360
Angle:  1   109.47    9.94989e-05     4680
   8030000   154.83466     -2189.1698      0             -1828.9387     -10.352063    
SHAKE stats (type/ave/delta/count) on step 8040000
Bond:   1   1         1.36356e-06     9360
Angle:  1   109.47    0.00010277      4680
   8040000   156.50944     -2182.3121      0             -1818.1845      2.3140547    
SHAKE stats (type/ave/delta/count) on step 8050000
Bond:   1   1         1.33267e-06     9360
Angle:  1   109.47    0.000103749     4680
   8050000   154.96889     -2194.5538      0             -1834.0105     -28.024204    
SHAKE stats (type/ave/delta/count) on step 8060000
Bond:   1   1         1.18432e-06     9360
Angle:  1   109.47    0.000101444     4680
   8060000   157.8109      -2198.7088      0             -1831.5533     -6.1448787    
SHAKE stats (type/ave/delta/count) on step 8070000
Bond:   1   1         1.52041e-06     9360
Angle:  1   109.47    9.66512e-05     4680
   8070000   153.53946     -2191.6918      0             -1834.4741     -11.551673    
SHAKE stats (type/ave/delta/count) on step 8080000
Bond:   1   1         1.28786e-06     9360
Angle:  1   109.47    9.68545e-05     4680
   8080000   157.16797     -2192.2837      0             -1826.624      -0.86644033   
SHAKE stats (type/ave/delta/count) on step 8090000
Bond:   1   1         1.14206e-06     9360
Angle:  1   109.47    9.56396e-05     4680
   8090000   156.38408     -2189.9378      0             -1826.1019     -14.648069    
SHAKE stats (type/ave/delta/count) on step 8100000
Bond:   1   1         1.31061e-06     9360
Angle:  1   109.47    9.77655e-05     4680
   8100000   156.71915     -2185.3896      0             -1820.7741     -13.652862    
SHAKE stats (type/ave/delta/count) on step 8110000
Bond:   1   1         1.21678e-06     9360
Angle:  1   109.47    0.000101515     4680
   8110000   154.36047     -2194.7948      0             -1835.667      -15.710965    
SHAKE stats (type/ave/delta/count) on step 8120000
Bond:   1   1         1.26069e-06     9360
Angle:  1   109.47    9.71311e-05     4680
   8120000   156.25889     -2192.4379      0             -1828.8933     -4.034405     
SHAKE stats (type/ave/delta/count) on step 8130000
Bond:   1   1         1.46495e-06     9360
Angle:  1   109.47    9.57281e-05     4680
   8130000   155.82922     -2189.3292      0             -1826.7842     -7.84052      
SHAKE stats (type/ave/delta/count) on step 8140000
Bond:   1   1         1.14491e-06     9360
Angle:  1   109.47    0.000109296     4680
   8140000   154.22366     -2192.2258      0             -1833.4163     -8.4859733    
SHAKE stats (type/ave/delta/count) on step 8150000
Bond:   1   1         1.20485e-06     9360
Angle:  1   109.47    9.67577e-05     4680
   8150000   153.97869     -2188.402       0             -1830.1624     -13.208903    
SHAKE stats (type/ave/delta/count) on step 8160000
Bond:   1   1         1.27688e-06     9360
Angle:  1   109.47    0.000100751     4680
   8160000   157.59613     -2189.6887      0             -1823.0329     -23.226856    
SHAKE stats (type/ave/delta/count) on step 8170000
Bond:   1   1         1.44005e-06     9360
Angle:  1   109.47    0.00010712      4680
   8170000   155.33768     -2182.351       0             -1820.9496     -16.661421    
SHAKE stats (type/ave/delta/count) on step 8180000
Bond:   1   1         1.33581e-06     9360
Angle:  1   109.47    0.000108937     4680
   8180000   156.5328      -2182.6366      0             -1818.4547     -9.4217181    
SHAKE stats (type/ave/delta/count) on step 8190000
Bond:   1   1         1.27577e-06     9360
Angle:  1   109.47    9.29636e-05     4680
   8190000   155.12183     -2185.7687      0             -1824.8695     -20.359532    
SHAKE stats (type/ave/delta/count) on step 8200000
Bond:   1   1         1.25077e-06     9360
Angle:  1   109.47    0.000106058     4680
   8200000   157.3715      -2196.9753      0             -1830.8422     -5.2514566    
SHAKE stats (type/ave/delta/count) on step 8210000
Bond:   1   1         1.28177e-06     9360
Angle:  1   109.47    0.000106844     4680
   8210000   156.3412      -2185.1678      0             -1821.4317     -29.231644    
SHAKE stats (type/ave/delta/count) on step 8220000
Bond:   1   1         1.57263e-06     9360
Angle:  1   109.47    0.000101368     4680
   8220000   154.69815     -2190.7491      0             -1830.8356      0.029411866  
SHAKE stats (type/ave/delta/count) on step 8230000
Bond:   1   1         1.28072e-06     9360
Angle:  1   109.47    0.000106417     4680
   8230000   156.92968     -2193.3544      0             -1828.2491     -12.504017    
SHAKE stats (type/ave/delta/count) on step 8240000
Bond:   1   1         1.18694e-06     9360
Angle:  1   109.47    0.000101002     4680
   8240000   156.37892     -2189.9747      0             -1826.1508      3.498707     
SHAKE stats (type/ave/delta/count) on step 8250000
Bond:   1   1         1.19528e-06     9360
Angle:  1   109.47    9.305e-05       4680
   8250000   155.838       -2199.0535      0             -1836.4881     -23.298236    
SHAKE stats (type/ave/delta/count) on step 8260000
Bond:   1   1         1.25582e-06     9360
Angle:  1   109.47    0.000101371     4680
   8260000   152.28807     -2188.5914      0             -1834.2851     -16.98026     
SHAKE stats (type/ave/delta/count) on step 8270000
Bond:   1   1         1.22334e-06     9360
Angle:  1   109.47    0.000101983     4680
   8270000   155.14813     -2189.0916      0             -1828.1312     -0.45637371   
SHAKE stats (type/ave/delta/count) on step 8280000
Bond:   1   1         1.40051e-06     9360
Angle:  1   109.47    9.57298e-05     4680
   8280000   153.15144     -2195.3727      0             -1839.0578     -8.7689691    
SHAKE stats (type/ave/delta/count) on step 8290000
Bond:   1   1         1.27826e-06     9360
Angle:  1   109.47    0.000103518     4680
   8290000   156.03985     -2188.2131      0             -1825.178      -0.98131496   
SHAKE stats (type/ave/delta/count) on step 8300000
Bond:   1   1         1.354e-06       9360
Angle:  1   109.47    9.94621e-05     4680
   8300000   155.75625     -2189.1286      0             -1826.7534     -5.4711913    
SHAKE stats (type/ave/delta/count) on step 8310000
Bond:   1   1         1.38777e-06     9360
Angle:  1   109.47    0.000102555     4680
   8310000   155.67669     -2182.7787      0             -1820.5886     -16.73139     
SHAKE stats (type/ave/delta/count) on step 8320000
Bond:   1   1         1.31096e-06     9360
Angle:  1   109.47    9.32359e-05     4680
   8320000   156.72924     -2193.5007      0             -1828.8618     -14.249179    
SHAKE stats (type/ave/delta/count) on step 8330000
Bond:   1   1         1.09804e-06     9360
Angle:  1   109.47    9.6222e-05      4680
   8330000   155.0138      -2190.1196      0             -1829.4718     -20.244438    
SHAKE stats (type/ave/delta/count) on step 8340000
Bond:   1   1         1.38594e-06     9360
Angle:  1   109.47    0.000115083     4680
   8340000   153.91621     -2194.7852      0             -1836.6909     -17.922311    
SHAKE stats (type/ave/delta/count) on step 8350000
Bond:   1   1         1.41702e-06     9360
Angle:  1   109.47    9.62459e-05     4680
   8350000   157.282       -2183.9556      0             -1818.0306     -22.034414    
SHAKE stats (type/ave/delta/count) on step 8360000
Bond:   1   1         1.34731e-06     9360
Angle:  1   109.47    0.000105        4680
   8360000   156.09022     -2194.7049      0             -1831.5527     -1.0434883    
SHAKE stats (type/ave/delta/count) on step 8370000
Bond:   1   1         1.39543e-06     9360
Angle:  1   109.47    0.000110631     4680
   8370000   156.76511     -2175.8147      0             -1811.0923     -19.345456    
SHAKE stats (type/ave/delta/count) on step 8380000
Bond:   1   1         1.5627e-06      9360
Angle:  1   109.47    0.000122497     4680
   8380000   155.30144     -2194.573       0             -1833.2559     -13.262732    
SHAKE stats (type/ave/delta/count) on step 8390000
Bond:   1   1         1.36468e-06     9360
Angle:  1   109.47    9.89829e-05     4680
   8390000   156.35643     -2185.1322      0             -1821.3606     -13.090341    
SHAKE stats (type/ave/delta/count) on step 8400000
Bond:   1   1         1.29378e-06     9360
Angle:  1   109.47    0.000106471     4680
   8400000   155.55314     -2195.9675      0             -1834.0648     -1.9570908    
SHAKE stats (type/ave/delta/count) on step 8410000
Bond:   1   1         1.37793e-06     9360
Angle:  1   109.47    0.000103709     4680
   8410000   156.05737     -2183.315       0             -1820.2392     -4.0688295    
SHAKE stats (type/ave/delta/count) on step 8420000
Bond:   1   1         1.5657e-06      9360
Angle:  1   109.47    0.00010046      4680
   8420000   156.04637     -2189.4618      0             -1826.4116     -19.577005    
SHAKE stats (type/ave/delta/count) on step 8430000
Bond:   1   1         1.22011e-06     9360
Angle:  1   109.47    9.92041e-05     4680
   8430000   156.24737     -2194.1363      0             -1830.6185     -7.1629995    
SHAKE stats (type/ave/delta/count) on step 8440000
Bond:   1   1         1.26243e-06     9360
Angle:  1   109.47    9.20339e-05     4680
   8440000   156.41404     -2190.8798      0             -1826.9742     -28.189564    
SHAKE stats (type/ave/delta/count) on step 8450000
Bond:   1   1         1.48674e-06     9360
Angle:  1   109.47    9.76083e-05     4680
   8450000   157.07297     -2185.1749      0             -1819.7362     -4.8750573    
SHAKE stats (type/ave/delta/count) on step 8460000
Bond:   1   1         1.26507e-06     9360
Angle:  1   109.47    0.000110617     4680
   8460000   157.73818     -2182.8883      0             -1815.902      -3.4870754    
SHAKE stats (type/ave/delta/count) on step 8470000
Bond:   1   1         1.76876e-06     9360
Angle:  1   109.47    0.0001102       4680
   8470000   153.80797     -2191.0923      0             -1833.2499     -17.210476    
SHAKE stats (type/ave/delta/count) on step 8480000
Bond:   1   1         1.11445e-06     9360
Angle:  1   109.47    9.67242e-05     4680
   8480000   158.4254      -2181.8831      0             -1813.2979     -19.418941    
SHAKE stats (type/ave/delta/count) on step 8490000
Bond:   1   1         1.32535e-06     9360
Angle:  1   109.47    0.000104354     4680
   8490000   155.90324     -2183.7692      0             -1821.052      -13.47034     
SHAKE stats (type/ave/delta/count) on step 8500000
Bond:   1   1         1.26753e-06     9360
Angle:  1   109.47    9.83295e-05     4680
   8500000   157.73219     -2185.5022      0             -1818.5299     -4.276884     
SHAKE stats (type/ave/delta/count) on step 8510000
Bond:   1   1         1.42358e-06     9360
Angle:  1   109.47    0.000102405     4680
   8510000   155.81486     -2192.2052      0             -1829.6936     -5.0250463    
SHAKE stats (type/ave/delta/count) on step 8520000
Bond:   1   1         1.31179e-06     9360
Angle:  1   109.47    9.97538e-05     4680
   8520000   154.1116      -2185.5125      0             -1826.9637     -7.6370296    
SHAKE stats (type/ave/delta/count) on step 8530000
Bond:   1   1         1.37471e-06     9360
Angle:  1   109.47    0.0001144       4680
   8530000   155.24595     -2191.9554      0             -1830.7674     -9.5674       
SHAKE stats (type/ave/delta/count) on step 8540000
Bond:   1   1         1.21298e-06     9360
Angle:  1   109.47    9.567e-05       4680
   8540000   155.49327     -2185.6879      0             -1823.9245     -6.3455328    
SHAKE stats (type/ave/delta/count) on step 8550000
Bond:   1   1         1.3444e-06      9360
Angle:  1   109.47    0.000113281     4680
   8550000   158.61975     -2198.2493      0             -1829.212      -17.530428    
SHAKE stats (type/ave/delta/count) on step 8560000
Bond:   1   1         1.30855e-06     9360
Angle:  1   109.47    0.000111128     4680
   8560000   155.002       -2187.0767      0             -1826.4562     -3.4575527    
SHAKE stats (type/ave/delta/count) on step 8570000
Bond:   1   1         1.47218e-06     9360
Angle:  1   109.47    0.000110546     4680
   8570000   154.64934     -2197.02        0             -1837.22       -15.774797    
SHAKE stats (type/ave/delta/count) on step 8580000
Bond:   1   1         1.55481e-06     9360
Angle:  1   109.47    9.93834e-05     4680
   8580000   153.14339     -2185.9947      0             -1829.6985     -4.111202     
SHAKE stats (type/ave/delta/count) on step 8590000
Bond:   1   1         1.11036e-06     9360
Angle:  1   109.47    0.000103334     4680
   8590000   155.93778     -2198.0207      0             -1835.2231      4.1064032    
SHAKE stats (type/ave/delta/count) on step 8600000
Bond:   1   1         1.37345e-06     9360
Angle:  1   109.47    0.000101997     4680
   8600000   155.39004     -2192.3487      0             -1830.8255     -7.021798     
SHAKE stats (type/ave/delta/count) on step 8610000
Bond:   1   1         1.34334e-06     9360
Angle:  1   109.47    9.7863e-05      4680
   8610000   154.13246     -2193.1501      0             -1834.5527     -20.226815    
SHAKE stats (type/ave/delta/count) on step 8620000
Bond:   1   1         1.25489e-06     9360
Angle:  1   109.47    0.000103809     4680
   8620000   155.20611     -2187.6133      0             -1826.518      -9.9863751    
SHAKE stats (type/ave/delta/count) on step 8630000
Bond:   1   1         1.34328e-06     9360
Angle:  1   109.47    0.000107718     4680
   8630000   154.72981     -2192.2849      0             -1832.2978      6.1017402    
SHAKE stats (type/ave/delta/count) on step 8640000
Bond:   1   1         1.50118e-06     9360
Angle:  1   109.47    0.000106559     4680
   8640000   155.62833     -2189.4064      0             -1827.3288     -5.9017422    
SHAKE stats (type/ave/delta/count) on step 8650000
Bond:   1   1         1.45424e-06     9360
Angle:  1   109.47    0.000102862     4680
   8650000   153.74746     -2199.4107      0             -1841.709      -18.253882    
SHAKE stats (type/ave/delta/count) on step 8660000
Bond:   1   1         1.24138e-06     9360
Angle:  1   109.47    0.000113321     4680
   8660000   156.32283     -2187.857       0             -1824.1636     -18.793415    
SHAKE stats (type/ave/delta/count) on step 8670000
Bond:   1   1         1.28753e-06     9360
Angle:  1   109.47    0.000104824     4680
   8670000   156.68494     -2192.2337      0             -1827.6978     -7.9711204    
SHAKE stats (type/ave/delta/count) on step 8680000
Bond:   1   1         1.24986e-06     9360
Angle:  1   109.47    9.47414e-05     4680
   8680000   155.19141     -2179.07        0             -1818.0089     -27.404145    
SHAKE stats (type/ave/delta/count) on step 8690000
Bond:   1   1         1.45664e-06     9360
Angle:  1   109.47    0.000103447     4680
   8690000   156.94131     -2191.3511      0             -1826.2188     -9.6500449    
SHAKE stats (type/ave/delta/count) on step 8700000
Bond:   1   1         1.28182e-06     9360
Angle:  1   109.47    9.63418e-05     4680
   8700000   155.35432     -2201.5814      0             -1840.1413     -10.695719    
SHAKE stats (type/ave/delta/count) on step 8710000
Bond:   1   1         1.36761e-06     9360
Angle:  1   109.47    9.61341e-05     4680
   8710000   156.23528     -2197.6814      0             -1834.1917     -24.550528    
SHAKE stats (type/ave/delta/count) on step 8720000
Bond:   1   1         1.25658e-06     9360
Angle:  1   109.47    9.41237e-05     4680
   8720000   157.06848     -2190.8231      0             -1825.3949     -3.9260333    
SHAKE stats (type/ave/delta/count) on step 8730000
Bond:   1   1         1.28283e-06     9360
Angle:  1   109.47    0.000100905     4680
   8730000   155.95922     -2185.2393      0             -1822.3919     -7.0259183    
SHAKE stats (type/ave/delta/count) on step 8740000
Bond:   1   1         1.22267e-06     9360
Angle:  1   109.47    0.000113069     4680
   8740000   155.37517     -2182.8143      0             -1821.3257     -20.18852     
SHAKE stats (type/ave/delta/count) on step 8750000
Bond:   1   1         1.32135e-06     9360
Angle:  1   109.47    0.000103044     4680
   8750000   155.80409     -2199.895       0             -1837.4084     -13.054534    
SHAKE stats (type/ave/delta/count) on step 8760000
Bond:   1   1         1.4875e-06      9360
Angle:  1   109.47    9.94494e-05     4680
   8760000   157.11156     -2189.3701      0             -1823.8416     -10.199569    
SHAKE stats (type/ave/delta/count) on step 8770000
Bond:   1   1         1.25626e-06     9360
Angle:  1   109.47    9.72987e-05     4680
   8770000   156.49836     -2194.3201      0             -1830.2184     -8.4686153    
SHAKE stats (type/ave/delta/count) on step 8780000
Bond:   1   1         1.7634e-06      9360
Angle:  1   109.47    0.000113957     4680
   8780000   156.70794     -2197.2291      0             -1832.6397     -18.807935    
SHAKE stats (type/ave/delta/count) on step 8790000
Bond:   1   1         1.75228e-06     9360
Angle:  1   109.47    0.00011977      4680
   8790000   157.09682     -2185.8012      0             -1820.3071     -19.534372    
SHAKE stats (type/ave/delta/count) on step 8800000
Bond:   1   1         1.51314e-06     9360
Angle:  1   109.47    0.000113661     4680
   8800000   156.60739     -2195.4902      0             -1831.1348     -17.810112    
SHAKE stats (type/ave/delta/count) on step 8810000
Bond:   1   1         1.41605e-06     9360
Angle:  1   109.47    0.000118954     4680
   8810000   156.63745     -2193.3354      0             -1828.91       -2.4886724    
SHAKE stats (type/ave/delta/count) on step 8820000
Bond:   1   1         1.25559e-06     9360
Angle:  1   109.47    9.05284e-05     4680
   8820000   156.03994     -2183.9953      0             -1820.9601     -16.025591    
SHAKE stats (type/ave/delta/count) on step 8830000
Bond:   1   1         1.45273e-06     9360
Angle:  1   109.47    0.00010437      4680
   8830000   155.76847     -2186.3205      0             -1823.9168     -8.4128232    
SHAKE stats (type/ave/delta/count) on step 8840000
Bond:   1   1         1.15118e-06     9360
Angle:  1   109.47    9.77957e-05     4680
   8840000   156.98803     -2194.2232      0             -1828.9822     -0.26828206   
SHAKE stats (type/ave/delta/count) on step 8850000
Bond:   1   1         1.32026e-06     9360
Angle:  1   109.47    0.000104343     4680
   8850000   157.43449     -2190.5887      0             -1824.309       1.1089907    
SHAKE stats (type/ave/delta/count) on step 8860000
Bond:   1   1         1.43707e-06     9360
Angle:  1   109.47    0.000103486     4680
   8860000   155.08116     -2192.3901      0             -1831.5855     -24.054965    
SHAKE stats (type/ave/delta/count) on step 8870000
Bond:   1   1         1.29557e-06     9360
Angle:  1   109.47    0.000107371     4680
   8870000   157.08346     -2174.6372      0             -1809.1741     -15.854808    
SHAKE stats (type/ave/delta/count) on step 8880000
Bond:   1   1         1.4344e-06      9360
Angle:  1   109.47    9.45764e-05     4680
   8880000   157.87495     -2190.1513      0             -1822.8468     -19.819579    
SHAKE stats (type/ave/delta/count) on step 8890000
Bond:   1   1         1.37392e-06     9360
Angle:  1   109.47    0.000104905     4680
   8890000   157.72469     -2185.6028      0             -1818.6479     -22.095505    
SHAKE stats (type/ave/delta/count) on step 8900000
Bond:   1   1         1.39388e-06     9360
Angle:  1   109.47    8.88326e-05     4680
   8900000   153.86828     -2188.4291      0             -1830.4463     -14.938112    
SHAKE stats (type/ave/delta/count) on step 8910000
Bond:   1   1         1.25922e-06     9360
Angle:  1   109.47    9.65266e-05     4680
   8910000   157.86508     -2190.5876      0             -1823.3061     -6.9737887    
SHAKE stats (type/ave/delta/count) on step 8920000
Bond:   1   1         1.26753e-06     9360
Angle:  1   109.47    0.000111951     4680
   8920000   155.83604     -2187.6292      0             -1825.0683     -11.24042     
SHAKE stats (type/ave/delta/count) on step 8930000
Bond:   1   1         1.68665e-06     9360
Angle:  1   109.47    0.000115814     4680
   8930000   157.25686     -2192.7815      0             -1826.915      -1.1371241    
SHAKE stats (type/ave/delta/count) on step 8940000
Bond:   1   1         1.2547e-06      9360
Angle:  1   109.47    9.83723e-05     4680
   8940000   154.60046     -2200.5003      0             -1840.8141     -14.647433    
SHAKE stats (type/ave/delta/count) on step 8950000
Bond:   1   1         1.66911e-06     9360
Angle:  1   109.47    0.000119299     4680
   8950000   155.6865      -2190.2954      0             -1828.0825     -1.4331303    
SHAKE stats (type/ave/delta/count) on step 8960000
Bond:   1   1         1.28866e-06     9360
Angle:  1   109.47    9.31733e-05     4680
   8960000   157.02222     -2187.382       0             -1822.0615     -14.425997    
SHAKE stats (type/ave/delta/count) on step 8970000
Bond:   1   1         1.19376e-06     9360
Angle:  1   109.47    0.000105238     4680
   8970000   155.75282     -2185.8376      0             -1823.4704     -14.308448    
SHAKE stats (type/ave/delta/count) on step 8980000
Bond:   1   1         1.57908e-06     9360
Angle:  1   109.47    0.000120247     4680
   8980000   152.94483     -2196.9095      0             -1841.0752      0.18062451   
SHAKE stats (type/ave/delta/count) on step 8990000
Bond:   1   1         1.55869e-06     9360
Angle:  1   109.47    9.94871e-05     4680
   8990000   155.8333      -2200.8726      0             -1838.3181     -14.91775     
SHAKE stats (type/ave/delta/count) on step 9000000
Bond:   1   1         1.41583e-06     9360
Angle:  1   109.47    9.5451e-05      4680
   9000000   156.98234     -2186.2987      0             -1821.071      -11.076871    
SHAKE stats (type/ave/delta/count) on step 9010000
Bond:   1   1         1.24711e-06     9360
Angle:  1   109.47    0.000105475     4680
   9010000   158.15242     -2185.3641      0             -1817.414      -8.5889689    
SHAKE stats (type/ave/delta/count) on step 9020000
Bond:   1   1         1.28733e-06     9360
Angle:  1   109.47    9.88524e-05     4680
   9020000   155.18677     -2187.155       0             -1826.1047     -23.627185    
SHAKE stats (type/ave/delta/count) on step 9030000
Bond:   1   1         1.41719e-06     9360
Angle:  1   109.47    9.91399e-05     4680
   9030000   155.46236     -2195.5285      0             -1833.837      -11.461422    
SHAKE stats (type/ave/delta/count) on step 9040000
Bond:   1   1         1.41475e-06     9360
Angle:  1   109.47    9.68746e-05     4680
   9040000   155.30072     -2191.3751      0             -1830.0597     -0.36663622   
SHAKE stats (type/ave/delta/count) on step 9050000
Bond:   1   1         1.25304e-06     9360
Angle:  1   109.47    0.000139895     4680
   9050000   154.88919     -2196.4531      0             -1836.0951     -11.397033    
SHAKE stats (type/ave/delta/count) on step 9060000
Bond:   1   1         1.338e-06       9360
Angle:  1   109.47    0.000109282     4680
   9060000   157.12616     -2190.6353      0             -1825.0729     -7.0498103    
SHAKE stats (type/ave/delta/count) on step 9070000
Bond:   1   1         1.26916e-06     9360
Angle:  1   109.47    9.34501e-05     4680
   9070000   155.05212     -2190.929       0             -1830.192       5.6922333    
SHAKE stats (type/ave/delta/count) on step 9080000
Bond:   1   1         1.27714e-06     9360
Angle:  1   109.47    9.83824e-05     4680
   9080000   155.92609     -2193.5018      0             -1830.7315     -18.627408    
SHAKE stats (type/ave/delta/count) on step 9090000
Bond:   1   1         1.19236e-06     9360
Angle:  1   109.47    9.51134e-05     4680
   9090000   155.66909     -2192.2496      0             -1830.0772      10.528859    
SHAKE stats (type/ave/delta/count) on step 9100000
Bond:   1   1         1.22582e-06     9360
Angle:  1   109.47    9.49959e-05     4680
   9100000   157.21889     -2197.1598      0             -1831.3816     -13.707316    
SHAKE stats (type/ave/delta/count) on step 9110000
Bond:   1   1         1.21144e-06     9360
Angle:  1   109.47    0.000105163     4680
   9110000   157.27275     -2187.3182      0             -1821.4148     -23.373543    
SHAKE stats (type/ave/delta/count) on step 9120000
Bond:   1   1         1.27402e-06     9360
Angle:  1   109.47    0.000115538     4680
   9120000   156.63264     -2198.1155      0             -1833.7013     -4.8384693    
SHAKE stats (type/ave/delta/count) on step 9130000
Bond:   1   1         1.22457e-06     9360
Angle:  1   109.47    0.000103069     4680
   9130000   154.72707     -2184.5121      0             -1824.5313     -18.269914    
SHAKE stats (type/ave/delta/count) on step 9140000
Bond:   1   1         1.31485e-06     9360
Angle:  1   109.47    9.64914e-05     4680
   9140000   156.89171     -2187.3468      0             -1822.3299     -3.0407367    
SHAKE stats (type/ave/delta/count) on step 9150000
Bond:   1   1         1.22894e-06     9360
Angle:  1   109.47    0.000104606     4680
   9150000   156.13353     -2203.759       0             -1840.506      -12.710044    
SHAKE stats (type/ave/delta/count) on step 9160000
Bond:   1   1         1.43799e-06     9360
Angle:  1   109.47    0.000101556     4680
   9160000   153.9102      -2192.2468      0             -1834.1665     -9.4781573    
SHAKE stats (type/ave/delta/count) on step 9170000
Bond:   1   1         1.6149e-06      9360
Angle:  1   109.47    0.000119064     4680
   9170000   156.63584     -2196.0396      0             -1831.6179     -25.16902     
SHAKE stats (type/ave/delta/count) on step 9180000
Bond:   1   1         1.27587e-06     9360
Angle:  1   109.47    9.95534e-05     4680
   9180000   155.24356     -2184.7435      0             -1823.5611      1.5835615    
SHAKE stats (type/ave/delta/count) on step 9190000
Bond:   1   1         1.21908e-06     9360
Angle:  1   109.47    0.000123046     4680
   9190000   158.13802     -2194.2146      0             -1826.298      -18.946999    
SHAKE stats (type/ave/delta/count) on step 9200000
Bond:   1   1         1.32902e-06     9360
Angle:  1   109.47    0.000108127     4680
   9200000   153.28788     -2187.7222      0             -1831.0898      8.2126328    
SHAKE stats (type/ave/delta/count) on step 9210000
Bond:   1   1         1.24224e-06     9360
Angle:  1   109.47    0.000116166     4680
   9210000   157.77841     -2187.76        0             -1820.6802     -3.8804752    
SHAKE stats (type/ave/delta/count) on step 9220000
Bond:   1   1         1.17605e-06     9360
Angle:  1   109.47    9.67872e-05     4680
   9220000   156.72558     -2189.4033      0             -1824.7729     -1.0647695    
SHAKE stats (type/ave/delta/count) on step 9230000
Bond:   1   1         1.65625e-06     9360
Angle:  1   109.47    0.000109488     4680
   9230000   158.33928     -2195.1362      0             -1826.7514     -14.147536    
SHAKE stats (type/ave/delta/count) on step 9240000
Bond:   1   1         1.36035e-06     9360
Angle:  1   109.47    0.000101624     4680
   9240000   157.09129     -2190.1064      0             -1824.6251     -12.723454    
SHAKE stats (type/ave/delta/count) on step 9250000
Bond:   1   1         1.29467e-06     9360
Angle:  1   109.47    9.22231e-05     4680
   9250000   158.79662     -2200.6691      0             -1831.2203     -4.5478947    
SHAKE stats (type/ave/delta/count) on step 9260000
Bond:   1   1         1.24784e-06     9360
Angle:  1   109.47    0.000106771     4680
   9260000   154.29785     -2189.5562      0             -1830.574      -21.08551     
SHAKE stats (type/ave/delta/count) on step 9270000
Bond:   1   1         1.25172e-06     9360
Angle:  1   109.47    9.82033e-05     4680
   9270000   155.69072     -2190.0396      0             -1827.8168     -3.7886511    
SHAKE stats (type/ave/delta/count) on step 9280000
Bond:   1   1         1.1809e-06      9360
Angle:  1   109.47    9.86502e-05     4680
   9280000   157.06508     -2189.6581      0             -1824.2379     -14.494188    
SHAKE stats (type/ave/delta/count) on step 9290000
Bond:   1   1         1.3256e-06      9360
Angle:  1   109.47    0.000108055     4680
   9290000   155.71578     -2189.9354      0             -1827.6543     -19.271128    
SHAKE stats (type/ave/delta/count) on step 9300000
Bond:   1   1         1.23028e-06     9360
Angle:  1   109.47    0.000109344     4680
   9300000   155.13058     -2196.675       0             -1835.7554     -12.983853    
SHAKE stats (type/ave/delta/count) on step 9310000
Bond:   1   1         1.27076e-06     9360
Angle:  1   109.47    0.000106813     4680
   9310000   154.68657     -2190.9251      0             -1831.0385     -24.117013    
SHAKE stats (type/ave/delta/count) on step 9320000
Bond:   1   1         1.23866e-06     9360
Angle:  1   109.47    0.000107519     4680
   9320000   153.82018     -2192.3683      0             -1834.4974     -8.1697264    
SHAKE stats (type/ave/delta/count) on step 9330000
Bond:   1   1         1.34687e-06     9360
Angle:  1   109.47    0.000115472     4680
   9330000   155.25636     -2192.4308      0             -1831.2186     -9.9266392    
SHAKE stats (type/ave/delta/count) on step 9340000
Bond:   1   1         1.25871e-06     9360
Angle:  1   109.47    0.000105087     4680
   9340000   154.45763     -2193.2124      0             -1833.8585     -13.482431    
SHAKE stats (type/ave/delta/count) on step 9350000
Bond:   1   1         1.31998e-06     9360
Angle:  1   109.47    0.000102284     4680
   9350000   154.42995     -2200.7087      0             -1841.4192     -14.636375    
SHAKE stats (type/ave/delta/count) on step 9360000
Bond:   1   1         1.27279e-06     9360
Angle:  1   109.47    0.000109605     4680
   9360000   156.39904     -2196.198       0             -1832.3273     -9.926717     
SHAKE stats (type/ave/delta/count) on step 9370000
Bond:   1   1         1.26391e-06     9360
Angle:  1   109.47    9.71506e-05     4680
   9370000   157.56049     -2189.5584      0             -1822.9855     -1.3378426    
SHAKE stats (type/ave/delta/count) on step 9380000
Bond:   1   1         1.36895e-06     9360
Angle:  1   109.47    0.000105942     4680
   9380000   155.4284      -2182.585       0             -1820.9725     -6.9533518    
SHAKE stats (type/ave/delta/count) on step 9390000
Bond:   1   1         1.38807e-06     9360
Angle:  1   109.47    9.68316e-05     4680
   9390000   154.83137     -2186.3709      0             -1826.1475     -18.823745    
SHAKE stats (type/ave/delta/count) on step 9400000
Bond:   1   1         1.27858e-06     9360
Angle:  1   109.47    0.000100626     4680
   9400000   155.44406     -2191.5983      0             -1829.9494     -22.865578    
SHAKE stats (type/ave/delta/count) on step 9410000
Bond:   1   1         1.19611e-06     9360
Angle:  1   109.47    9.73073e-05     4680
   9410000   155.68765     -2187.2522      0             -1825.0366     -10.647128    
SHAKE stats (type/ave/delta/count) on step 9420000
Bond:   1   1         1.37411e-06     9360
Angle:  1   109.47    9.589e-05       4680
   9420000   152.77935     -2186.4229      0             -1830.9736     -14.100181    
SHAKE stats (type/ave/delta/count) on step 9430000
Bond:   1   1         1.33056e-06     9360
Angle:  1   109.47    0.000112561     4680
   9430000   153.95655     -2187.4549      0             -1829.2668     -20.773528    
SHAKE stats (type/ave/delta/count) on step 9440000
Bond:   1   1         1.20704e-06     9360
Angle:  1   109.47    8.87057e-05     4680
   9440000   154.50696     -2197.2092      0             -1837.7405     -12.548678    
SHAKE stats (type/ave/delta/count) on step 9450000
Bond:   1   1         1.34514e-06     9360
Angle:  1   109.47    9.80622e-05     4680
   9450000   156.47648     -2200.5565      0             -1836.5056     -6.84956      
SHAKE stats (type/ave/delta/count) on step 9460000
Bond:   1   1         1.2942e-06      9360
Angle:  1   109.47    0.000108339     4680
   9460000   157.09879     -2201.5944      0             -1836.0956     -10.767268    
SHAKE stats (type/ave/delta/count) on step 9470000
Bond:   1   1         1.33838e-06     9360
Angle:  1   109.47    0.000114915     4680
   9470000   157.96457     -2187.9572      0             -1820.4442     -20.482322    
SHAKE stats (type/ave/delta/count) on step 9480000
Bond:   1   1         1.26754e-06     9360
Angle:  1   109.47    9.46141e-05     4680
   9480000   155.58828     -2187.8752      0             -1825.8908     -16.156896    
SHAKE stats (type/ave/delta/count) on step 9490000
Bond:   1   1         1.27989e-06     9360
Angle:  1   109.47    9.38017e-05     4680
   9490000   154.45563     -2192.9746      0             -1833.6253     -4.2022894    
SHAKE stats (type/ave/delta/count) on step 9500000
Bond:   1   1         1.11338e-06     9360
Angle:  1   109.47    0.000103976     4680
   9500000   155.10685     -2192.7333      0             -1831.8689     -10.501157    
SHAKE stats (type/ave/delta/count) on step 9510000
Bond:   1   1         1.38436e-06     9360
Angle:  1   109.47    0.000105658     4680
   9510000   157.28595     -2187.2953      0             -1821.3611      4.1645043    
SHAKE stats (type/ave/delta/count) on step 9520000
Bond:   1   1         1.5359e-06      9360
Angle:  1   109.47    0.000112306     4680
   9520000   157.55535     -2193.5131      0             -1826.9521     -14.164583    
SHAKE stats (type/ave/delta/count) on step 9530000
Bond:   1   1         1.34019e-06     9360
Angle:  1   109.47    9.20175e-05     4680
   9530000   157.93293     -2185.4632      0             -1818.0238     -24.228676    
SHAKE stats (type/ave/delta/count) on step 9540000
Bond:   1   1         1.51212e-06     9360
Angle:  1   109.47    0.000109905     4680
   9540000   155.57206     -2191.3562      0             -1829.4095     -11.230904    
SHAKE stats (type/ave/delta/count) on step 9550000
Bond:   1   1         1.24684e-06     9360
Angle:  1   109.47    9.76244e-05     4680
   9550000   156.76781     -2199.4279      0             -1834.6992     -2.3116562    
SHAKE stats (type/ave/delta/count) on step 9560000
Bond:   1   1         1.14128e-06     9360
Angle:  1   109.47    0.000113135     4680
   9560000   154.2627      -2195.0817      0             -1836.1813     -11.546734    
SHAKE stats (type/ave/delta/count) on step 9570000
Bond:   1   1         1.23096e-06     9360
Angle:  1   109.47    9.96331e-05     4680
   9570000   155.74752     -2189.7468      0             -1827.3919     -16.296303    
SHAKE stats (type/ave/delta/count) on step 9580000
Bond:   1   1         1.19614e-06     9360
Angle:  1   109.47    9.03844e-05     4680
   9580000   155.50048     -2203.6357      0             -1841.8555     -19.510641    
SHAKE stats (type/ave/delta/count) on step 9590000
Bond:   1   1         1.5644e-06      9360
Angle:  1   109.47    9.37626e-05     4680
   9590000   157.0421      -2188.9607      0             -1823.5939     -5.34616      
SHAKE stats (type/ave/delta/count) on step 9600000
Bond:   1   1         1.3309e-06      9360
Angle:  1   109.47    9.58869e-05     4680
   9600000   155.27775     -2190.8083      0             -1829.5463     -18.666045    
SHAKE stats (type/ave/delta/count) on step 9610000
Bond:   1   1         1.18225e-06     9360
Angle:  1   109.47    9.41648e-05     4680
   9610000   155.64633     -2192.613       0             -1830.4935     -17.582314    
SHAKE stats (type/ave/delta/count) on step 9620000
Bond:   1   1         1.22938e-06     9360
Angle:  1   109.47    0.000102979     4680
   9620000   157.05161     -2187.5566      0             -1822.1676     -2.1258031    
SHAKE stats (type/ave/delta/count) on step 9630000
Bond:   1   1         1.80717e-06     9360
Angle:  1   109.47    0.000124249     4680
   9630000   155.149       -2206.257       0             -1845.2946     -19.94938     
SHAKE stats (type/ave/delta/count) on step 9640000
Bond:   1   1         1.39086e-06     9360
Angle:  1   109.47    9.23007e-05     4680
   9640000   155.118       -2188.28        0             -1827.3897     -2.7107115    
SHAKE stats (type/ave/delta/count) on step 9650000
Bond:   1   1         1.20013e-06     9360
Angle:  1   109.47    9.82941e-05     4680
   9650000   156.53038     -2190.7892      0             -1826.6129     -8.688164     
SHAKE stats (type/ave/delta/count) on step 9660000
Bond:   1   1         1.14381e-06     9360
Angle:  1   109.47    9.51244e-05     4680
   9660000   156.95185     -2188.4912      0             -1823.3343      4.1830063    
SHAKE stats (type/ave/delta/count) on step 9670000
Bond:   1   1         1.34573e-06     9360
Angle:  1   109.47    9.81315e-05     4680
   9670000   155.25558     -2187.8859      0             -1826.6755     -21.215264    
SHAKE stats (type/ave/delta/count) on step 9680000
Bond:   1   1         1.4817e-06      9360
Angle:  1   109.47    0.000102231     4680
   9680000   158.24142     -2192.7954      0             -1824.6383     -22.901285    
SHAKE stats (type/ave/delta/count) on step 9690000
Bond:   1   1         1.28361e-06     9360
Angle:  1   109.47    9.57878e-05     4680
   9690000   157.41577     -2200.3125      0             -1834.0763      3.5907587    
SHAKE stats (type/ave/delta/count) on step 9700000
Bond:   1   1         1.20985e-06     9360
Angle:  1   109.47    9.7017e-05      4680
   9700000   154.80084     -2196.1143      0             -1835.9619     -9.4815511    
SHAKE stats (type/ave/delta/count) on step 9710000
Bond:   1   1         1.48722e-06     9360
Angle:  1   109.47    0.000100016     4680
   9710000   156.39931     -2194.6448      0             -1830.7734     -3.7959273    
SHAKE stats (type/ave/delta/count) on step 9720000
Bond:   1   1         1.36877e-06     9360
Angle:  1   109.47    0.000100816     4680
   9720000   156.25786     -2196.8922      0             -1833.3499      8.8091724    
SHAKE stats (type/ave/delta/count) on step 9730000
Bond:   1   1         1.20786e-06     9360
Angle:  1   109.47    0.000102312     4680
   9730000   156.00176     -2194.8321      0             -1831.8856      0.54887179   
SHAKE stats (type/ave/delta/count) on step 9740000
Bond:   1   1         1.55034e-06     9360
Angle:  1   109.47    0.000113087     4680
   9740000   156.17561     -2191.7531      0             -1828.4022     -10.413668    
SHAKE stats (type/ave/delta/count) on step 9750000
Bond:   1   1         1.43139e-06     9360
Angle:  1   109.47    0.000100228     4680
   9750000   155.97323     -2184.7879      0             -1821.9079     -23.023524    
SHAKE stats (type/ave/delta/count) on step 9760000
Bond:   1   1         1.30147e-06     9360
Angle:  1   109.47    9.75394e-05     4680
   9760000   157.69121     -2182.4652      0             -1815.5882     -6.5826861    
SHAKE stats (type/ave/delta/count) on step 9770000
Bond:   1   1         1.22991e-06     9360
Angle:  1   109.47    0.000114739     4680
   9770000   154.55874     -2186.2908      0             -1826.7016     -6.7111095    
SHAKE stats (type/ave/delta/count) on step 9780000
Bond:   1   1         1.52897e-06     9360
Angle:  1   109.47    0.000103963     4680
   9780000   155.07048     -2193.5808      0             -1832.801      -13.39325     
SHAKE stats (type/ave/delta/count) on step 9790000
Bond:   1   1         1.2187e-06      9360
Angle:  1   109.47    9.90649e-05     4680
   9790000   155.48379     -2189.7949      0             -1828.0535     -26.789399    
SHAKE stats (type/ave/delta/count) on step 9800000
Bond:   1   1         1.26365e-06     9360
Angle:  1   109.47    9.13847e-05     4680
   9800000   155.82357     -2194.3899      0             -1831.8581     -20.055129    
SHAKE stats (type/ave/delta/count) on step 9810000
Bond:   1   1         1.3316e-06      9360
Angle:  1   109.47    9.31129e-05     4680
   9810000   156.84452     -2197.1696      0             -1832.2624     -11.749555    
SHAKE stats (type/ave/delta/count) on step 9820000
Bond:   1   1         1.28347e-06     9360
Angle:  1   109.47    0.000101476     4680
   9820000   156.24941     -2184.3372      0             -1820.8146      6.716588     
SHAKE stats (type/ave/delta/count) on step 9830000
Bond:   1   1         1.26411e-06     9360
Angle:  1   109.47    9.81374e-05     4680
   9830000   155.19257     -2202.0595      0             -1840.9957     -8.06111      
SHAKE stats (type/ave/delta/count) on step 9840000
Bond:   1   1         1.1524e-06      9360
Angle:  1   109.47    9.18048e-05     4680
   9840000   153.89362     -2192.7447      0             -1834.703       1.923958     
SHAKE stats (type/ave/delta/count) on step 9850000
Bond:   1   1         1.56603e-06     9360
Angle:  1   109.47    0.000113362     4680
   9850000   156.35617     -2184.653       0             -1820.882      -5.7735721    
SHAKE stats (type/ave/delta/count) on step 9860000
Bond:   1   1         1.55762e-06     9360
Angle:  1   109.47    0.000115663     4680
   9860000   158.69309     -2191.4633      0             -1822.2554     -0.018289408  
SHAKE stats (type/ave/delta/count) on step 9870000
Bond:   1   1         1.40777e-06     9360
Angle:  1   109.47    0.000100117     4680
   9870000   156.30466     -2192.4153      0             -1828.7642     -5.9963286    
SHAKE stats (type/ave/delta/count) on step 9880000
Bond:   1   1         1.40164e-06     9360
Angle:  1   109.47    0.000100368     4680
   9880000   155.54072     -2191.8744      0             -1830.0006     -14.979076    
SHAKE stats (type/ave/delta/count) on step 9890000
Bond:   1   1         1.13992e-06     9360
Angle:  1   109.47    9.77392e-05     4680
   9890000   159.3275      -2191.0684      0             -1820.3844     -21.466818    
SHAKE stats (type/ave/delta/count) on step 9900000
Bond:   1   1         1.20093e-06     9360
Angle:  1   109.47    0.000104568     4680
   9900000   156.17359     -2188.8631      0             -1825.5169     -16.324461    
SHAKE stats (type/ave/delta/count) on step 9910000
Bond:   1   1         1.68107e-06     9360
Angle:  1   109.47    0.00010663      4680
   9910000   156.10178     -2188.0919      0             -1824.9128     -8.3176208    
SHAKE stats (type/ave/delta/count) on step 9920000
Bond:   1   1         1.30816e-06     9360
Angle:  1   109.47    9.4483e-05      4680
   9920000   156.4265      -2186.5506      0             -1822.616       6.8877359    
SHAKE stats (type/ave/delta/count) on step 9930000
Bond:   1   1         1.34137e-06     9360
Angle:  1   109.47    9.7125e-05      4680
   9930000   155.72785     -2187.8474      0             -1825.5383     -8.7708504    
SHAKE stats (type/ave/delta/count) on step 9940000
Bond:   1   1         1.48222e-06     9360
Angle:  1   109.47    0.000115685     4680
   9940000   154.94451     -2188.087       0             -1827.6003     -4.9747814    
SHAKE stats (type/ave/delta/count) on step 9950000
Bond:   1   1         1.34236e-06     9360
Angle:  1   109.47    9.87947e-05     4680
   9950000   158.03588     -2189.6493      0             -1821.9704     -21.918853    
SHAKE stats (type/ave/delta/count) on step 9960000
Bond:   1   1         1.27313e-06     9360
Angle:  1   109.47    0.000101138     4680
   9960000   153.74815     -2195.1328      0             -1837.4295     -15.953365    
SHAKE stats (type/ave/delta/count) on step 9970000
Bond:   1   1         1.29623e-06     9360
Angle:  1   109.47    0.000102079     4680
   9970000   155.06289     -2184.279       0             -1823.5169     -15.015505    
SHAKE stats (type/ave/delta/count) on step 9980000
Bond:   1   1         1.45837e-06     9360
Angle:  1   109.47    0.000105059     4680
   9980000   155.57146     -2199.0668      0             -1837.1215     -19.57378     
SHAKE stats (type/ave/delta/count) on step 9990000
Bond:   1   1         1.17768e-06     9360
Angle:  1   109.47    9.63451e-05     4680
   9990000   156.92572     -2183.8138      0             -1818.7177     -18.489026    
SHAKE stats (type/ave/delta/count) on step 10000000
Bond:   1   1         1.32199e-06     9360
Angle:  1   109.47    9.67936e-05     4680
  10000000   154.239       -2191.437       0             -1832.5917     -2.8857239    
Loop time of 65867.5 on 640 procs for 10000000 steps with 22680 atoms

Performance: 13.117 ns/day, 1.830 hours/ns, 151.820 timesteps/s, 3.443 Matom-step/s
100.0% CPU use with 640 MPI tasks x 1 OpenMP threads

MPI task timing breakdown:
Section |  min time  |  avg time  |  max time  |%varavg| %total
---------------------------------------------------------------
Pair    | 0.94264    | 1026.5     | 18028      |8737.0 |  1.56
Bond    | 0.85627    | 1.7494     | 3.9769     |  41.4 |  0.00
Kspace  | 41247      | 57902      | 59331      |1158.8 | 87.91
Neigh   | 2450.4     | 2561.3     | 2607       |  85.4 |  3.89
Comm    | 38.453     | 630.9      | 2664.2     |2946.7 |  0.96
Output  | 0.46583    | 0.48053    | 0.49059    |   0.7 |  0.00
Modify  | 1683.5     | 3532.8     | 4266.6     |1034.2 |  5.36
Other   |            | 211.3      |            |       |  0.32

Nlocal:        35.4375 ave         603 max           0 min
Histogram: 545 54 6 2 4 5 5 1 4 14
Nghost:        358.377 ave        4170 max           0 min
Histogram: 440 113 27 16 20 4 6 4 6 4
Neighs:        6322.79 ave      166196 max           0 min
Histogram: 601 6 4 5 5 1 4 2 3 9

Total # of neighbors = 4046584
Ave neighs/atom = 178.42081
Ave special neighs/atom = 1.2380952
Neighbor list builds = 532748
Dangerous builds = 0

write_restart nvt_equi.restart.*
System init for write_restart ...
PPPM initialization ...
  using 12-bit tables for long-range coulomb (src/kspace.cpp:342)
  G vector (1/distance) = 0.30003007
  grid = 96 90 96
  stencil order = 5
  estimated absolute RMS force accuracy = 0.00016542148
  estimated relative force accuracy = 1.1487886e-05
  using double precision KISS FFT
  3d grid and FFT values/proc = 5472 1440
Generated 0 of 3 mixed pair_coeff terms from geometric mixing rule
write_data nvt_equi_final.lammps-data pair ij
System init for write_data ...
PPPM initialization ...
  using 12-bit tables for long-range coulomb (src/kspace.cpp:342)
  G vector (1/distance) = 0.30003007
  grid = 96 90 96
  stencil order = 5
  estimated absolute RMS force accuracy = 0.00016542148
  estimated relative force accuracy = 1.1487886e-05
  using double precision KISS FFT
  3d grid and FFT values/proc = 5472 1440
Generated 0 of 3 mixed pair_coeff terms from geometric mixing rule

Total wall time: 18:18:40
