LAMMPS (4 Feb 2025)
OMP_NUM_THREADS environment is not set. Defaulting to 1 thread. (src/comm.cpp:99)
  using 1 OpenMP thread(s) per MPI task
# LAMMPS script for running NVT simulation

units       metal                   # Energies in eV, distances in A
dimension   3
boundary    p p p
atom_style  full

read_data   ../start.lammps-data
Reading data file ...
  orthogonal box = (0 0 0) to (154.008 148.19427 151.07317)
  10 by 8 by 8 MPI processor grid
  reading atoms ...
  14640 atoms
  scanning bonds ...
  2 = max bonds/atom
  reading velocities ...
  14640 velocities
  scanning angles ...
  1 = max angles/atom
  orthogonal box = (0 0 0) to (154.008 148.19427 151.07317)
  10 by 8 by 8 MPI processor grid
  reading bonds ...
  4000 bonds
  reading angles ...
  2000 angles
Finding 1-2 1-3 1-4 neighbors ...
  special bond factors lj:    0        0        0       
  special bond factors coul:  0        0        0       
     2 = max # of 1-2 neighbors
     1 = max # of 1-3 neighbors
     1 = max # of 1-4 neighbors
     2 = max # of special neighbors
  special bonds CPU = 6.311 seconds
  read_data CPU = 6.529 seconds

bond_style   zero                    # SPC/E rigid model
bond_coeff   1 1.0                   # SPC/E rigid model
angle_style  zero                    # SPC/E rigid model
angle_coeff  1 109.47                # SPC/E rigid model
pair_style   lj/cut/coul/long 9.0    # Cutoff radius of 0.9 nm = 9 A
kspace_style pppm 1.0e-5             # Particle-particle particle-mesh Ewald summation
pair_coeff   1 1 0.0      1.0        # Ignore C-C
pair_coeff   1 2 0.0      1.0        # Ignore C-H
pair_coeff   1 3 0.004551 3.367      # LJ for C-O (0.4391 kJ/mol = 0.004551 eV)
pair_coeff   2 2 0.0      1.0        # SPC/E H-H
pair_coeff   2 3 0.0      1.0        # SPC/E H-O
pair_coeff   3 3 0.006735 3.166      # SPC/E O-O (0.1553 kcal/mol = 0.006735 eV)

set type 2 charge 0.4238            # SPC/E H
Setting atom values ...
  4000 settings made for charge
set type 3 charge -0.8476           # SPC/E O
Setting atom values ...
  2000 settings made for charge

variable t equal step

group graphene type 1
8640 atoms in group graphene
group H2O type 2 3
6000 atoms in group H2O

######### Energy minimization #########

thermo 10
fix graphene_fix graphene setforce 0.0 0.0 0.0
fix rigid_bonds H2O shake 0.0001 10 10000 b 1 a 1
Finding SHAKE clusters ...
       0 = # of size 2 clusters
       0 = # of size 3 clusters
       0 = # of size 4 clusters
    2000 = # of frozen angles
  find clusters CPU = 0.192 seconds
minimize 0.0 0.0 1000 1000000
PPPM initialization ...
  using 12-bit tables for long-range coulomb (src/kspace.cpp:342)
  G vector (1/distance) = 0.28515695
  grid = 80 80 80
  stencil order = 5
  estimated absolute RMS force accuracy = 0.00017907316
  estimated relative force accuracy = 1.2435943e-05
  using double precision KISS FFT
  3d grid and FFT values/proc = 4335 960
Generated 0 of 3 mixed pair_coeff terms from geometric mixing rule
WARNING: Using fix shake with minimization.
  Substituting constraints with harmonic restraint forces using kbond=86.17 (src/RIGID/fix_shake.cpp:386)
Neighbor list info ...
  update: every = 1 steps, delay = 0 steps, check = yes
  max neighbors/atom: 2000, page size: 100000
  master list distance cutoff = 11
  ghost atom cutoff = 11
  binsize = 5.5, bins = 29 27 28
  1 neighbor lists, perpetual/occasional/extra = 1 0 0
  (1) pair lj/cut/coul/long, perpetual
      attributes: half, newton on
      pair build: half/bin/newton
      stencil: half/bin/3d
      bin: standard
Per MPI rank memory allocation (min/avg/max) = 9.12 | 9.178 | 9.926 Mbytes
   Step          Temp          E_pair         E_mol          TotEng         Press     
         0   143.62787     -875.71333      0             -641.06576      407.98604    
        10   143.62787     -993.46671      0             -743.7609       111.66684    
        20   143.62787     -1041.4561      0             -790.40744      213.92632    
        30   143.62787     -1064.6689      0             -810.73161      135.25233    
        40   143.62787     -1087.3762      0             -832.10945      188.83574    
        50   143.62787     -1099.5389      0             -842.59003      183.43381    
        60   143.62787     -1104.5907      0              5386768.9     -922939.43    
SHAKE stats (type/ave/delta/count) on step 60
Bond:   1   2.0281    26.3685         3992
Angle:  1   101.499   173.057         1985
Loop time of 1.08568 on 640 procs for 60 steps with 14640 atoms

99.1% CPU use with 640 MPI tasks x 1 OpenMP threads

Minimization stats:
  Stopping criterion = linesearch alpha is zero
  Energy initial, next-to-last, final = 
     -875.713331286945  -1082.53392200057   5386534.29343911
  Force two-norm initial, final = 81.442921 72079.187
  Force max component initial, final = 3.6463573 7251.7596
  Final line search alpha, max atom move = 1.3541429e-10 9.8199188e-07
  Iterations, force evaluations = 60 147

MPI task timing breakdown:
Section |  min time  |  avg time  |  max time  |%varavg| %total
---------------------------------------------------------------
Pair    | 1.977e-05  | 0.01139    | 0.58836    |  53.3 |  1.05
Bond    | 1.8083e-05 | 4.0745e-05 | 7.8475e-05 |   0.0 |  0.00
Kspace  | 0.44232    | 1.0363     | 1.0511     |   5.8 | 95.45
Neigh   | 0.0042915  | 0.0046395  | 0.0047353  |   0.2 |  0.43
Comm    | 0.000147   | 0.0042845  | 0.029613   |  10.1 |  0.39
Output  | 0.00079056 | 0.00079957 | 0.00085772 |   0.0 |  0.07
Modify  | 0.00026689 | 0.001229   | 0.003474   |   0.9 |  0.11
Other   |            | 0.02701    |            |       |  2.49

Nlocal:         22.875 ave         617 max           0 min
Histogram: 555 63 6 3 2 1 1 1 4 4
Nghost:        225.691 ave        3265 max           0 min
Histogram: 465 110 28 10 11 6 6 2 0 2
Neighs:        3201.74 ave      169520 max           0 min
Histogram: 623 5 1 2 0 1 2 3 1 2

Total # of neighbors = 2049115
Ave neighs/atom = 139.96687
Ave special neighs/atom = 0.81967213
Neighbor list builds = 1
Dangerous builds = 0
unfix graphene_fix
reset_timestep 0

######### Soft run to prevent explosion #########

thermo 150
timestep 0.00001
fix NVT1 H2O nvt temp 300 300 $(20.0*dt)
fix NVT1 H2O nvt temp 300 300 0.00020000000000000000958
run 1500
PPPM initialization ...
  using 12-bit tables for long-range coulomb (src/kspace.cpp:342)
  G vector (1/distance) = 0.28515695
  grid = 80 80 80
  stencil order = 5
  estimated absolute RMS force accuracy = 0.00017907316
  estimated relative force accuracy = 1.2435943e-05
  using double precision KISS FFT
  3d grid and FFT values/proc = 4335 960
Generated 0 of 3 mixed pair_coeff terms from geometric mixing rule
SHAKE stats (type/ave/delta/count) on step 0
Bond:   1   1.00733   0.0167919       4000
Angle:  1   108.017   3.66546         2000
Per MPI rank memory allocation (min/avg/max) = 7.995 | 8.053 | 8.801 Mbytes
   Step          Temp          E_pair         E_mol          TotEng         Press     
         0   143.62787     -1104.5907      0             -869.94314     -5142.9374    
       150   95.388239     -1057.9937      0             -902.15608     -111.9347     
       300   94.503782     -1050.7743      0             -896.38165     -105.35277    
       450   95.681935     -1039.5743      0             -883.25686     -94.393549    
       600   95.400875     -1025.5277      0             -869.66949     -80.781971    
       750   94.518067     -1010.125       0             -855.70904     -65.501135    
       900   94.304771     -994.84647      0             -840.77898     -49.329194    
      1050   94.431012     -981.04714      0             -826.7734      -33.525069    
      1200   94.538943     -969.78145      0             -815.33139     -19.285941    
      1350   94.850086     -961.58872      0             -806.63034     -7.1865319    
      1500   95.432495     -956.46141      0             -800.55153      2.5519346    
Loop time of 9.15078 on 640 procs for 1500 steps with 14640 atoms

Performance: 0.142 ns/day, 169.459 hours/ns, 163.920 timesteps/s, 2.400 Matom-step/s
99.9% CPU use with 640 MPI tasks x 1 OpenMP threads

MPI task timing breakdown:
Section |  min time  |  avg time  |  max time  |%varavg| %total
---------------------------------------------------------------
Pair    | 0.00012163 | 0.076439   | 4.1286     | 144.0 |  0.84
Bond    | 0.00011925 | 0.00025649 | 0.00051321 |   0.0 |  0.00
Kspace  | 4.4537     | 8.4361     | 8.6058     |  13.5 | 92.19
Neigh   | 0          | 0          | 0          |   0.0 |  0.00
Comm    | 0.0004187  | 0.061906   | 0.47912    |  43.8 |  0.68
Output  | 0.001996   | 0.0020298  | 0.0021447  |   0.0 |  0.02
Modify  | 0.21798    | 0.5429     | 0.71937    |  13.6 |  5.93
Other   |            | 0.03119    |            |       |  0.34

Nlocal:         22.875 ave         616 max           0 min
Histogram: 555 63 6 3 2 1 1 1 4 4
Nghost:        225.681 ave        3267 max           0 min
Histogram: 465 110 28 10 11 6 6 2 0 2
Neighs:        3199.43 ave      169238 max           0 min
Histogram: 622 6 1 2 0 1 2 3 1 2

Total # of neighbors = 2047637
Ave neighs/atom = 139.86592
Ave special neighs/atom = 0.81967213
Neighbor list builds = 0
Dangerous builds = 0
unfix NVT1
reset_timestep 0

######### A little bit faster #########

thermo 150
timestep 0.00002
fix NVT1 H2O nvt temp 300 300 $(25.0*dt)
fix NVT1 H2O nvt temp 300 300 0.00050000000000000001041
run 1500
PPPM initialization ...
  using 12-bit tables for long-range coulomb (src/kspace.cpp:342)
  G vector (1/distance) = 0.28515695
  grid = 80 80 80
  stencil order = 5
  estimated absolute RMS force accuracy = 0.00017907316
  estimated relative force accuracy = 1.2435943e-05
  using double precision KISS FFT
  3d grid and FFT values/proc = 4335 960
Generated 0 of 3 mixed pair_coeff terms from geometric mixing rule
SHAKE stats (type/ave/delta/count) on step 0
Bond:   1   1         8.93382e-11     4000
Angle:  1   109.47    5.92362e-09     2000
Per MPI rank memory allocation (min/avg/max) = 7.995 | 8.053 | 8.801 Mbytes
   Step          Temp          E_pair         E_mol          TotEng         Press     
         0   95.432495     -956.46141      0             -800.55153      2.5509085    
       150   93.687889     -953.22348      0             -800.1638       14.580517    
       300   95.312262     -953.84547      0             -798.13202      23.2756      
       450   95.028119     -953.45195      0             -798.20271      29.974521    
       600   93.036834     -951.49248      0             -799.49644      34.86619     
       750   97.950945     -950.0201       0             -789.99579      39.007026    
       900   95.129822     -950.16927      0             -794.75387      37.039522    
      1050   94.412694     -950.73556      0             -796.49175      33.516799    
      1200   95.644052     -949.65112      0             -793.39562      30.47002     
      1350   95.446311     -946.59406      0             -790.66162      27.581812    
      1500   92.838203     -943.01069      0             -791.33916      23.727951    
Loop time of 9.11555 on 640 procs for 1500 steps with 14640 atoms

Performance: 0.284 ns/day, 84.403 hours/ns, 164.554 timesteps/s, 2.409 Matom-step/s
100.0% CPU use with 640 MPI tasks x 1 OpenMP threads

MPI task timing breakdown:
Section |  min time  |  avg time  |  max time  |%varavg| %total
---------------------------------------------------------------
Pair    | 0.0001227  | 0.076591   | 4.1205     | 144.3 |  0.84
Bond    | 0.00011791 | 0.00025717 | 0.00048953 |   0.0 |  0.00
Kspace  | 4.4223     | 8.3936     | 8.5695     |  13.6 | 92.08
Neigh   | 0.0042031  | 0.0044795  | 0.0045435  |   0.1 |  0.05
Comm    | 0.00050188 | 0.06232    | 0.48449    |  43.8 |  0.68
Output  | 0.0019963  | 0.0020433  | 0.0021603  |   0.0 |  0.02
Modify  | 0.21668    | 0.54555    | 0.72731    |  13.9 |  5.98
Other   |            | 0.03071    |            |       |  0.34

Nlocal:         22.875 ave         615 max           0 min
Histogram: 555 63 6 3 2 1 1 1 4 4
Nghost:        225.884 ave        3264 max           0 min
Histogram: 465 110 28 10 11 5 7 2 0 2
Neighs:        3199.05 ave      168581 max           0 min
Histogram: 623 4 2 2 0 1 1 4 1 2

Total # of neighbors = 2047395
Ave neighs/atom = 139.84939
Ave special neighs/atom = 0.81967213
Neighbor list builds = 1
Dangerous builds = 0
unfix NVT1
reset_timestep 0

######### And faster still #########

thermo 150
timestep 0.00005
fix NVT1 H2O nvt temp 300 300 $(30.0*dt)
fix NVT1 H2O nvt temp 300 300 0.0015000000000000000312
run 1500
PPPM initialization ...
  using 12-bit tables for long-range coulomb (src/kspace.cpp:342)
  G vector (1/distance) = 0.28515695
  grid = 80 80 80
  stencil order = 5
  estimated absolute RMS force accuracy = 0.00017907316
  estimated relative force accuracy = 1.2435943e-05
  using double precision KISS FFT
  3d grid and FFT values/proc = 4335 960
Generated 0 of 3 mixed pair_coeff terms from geometric mixing rule
SHAKE stats (type/ave/delta/count) on step 0
Bond:   1   1         4.28732e-10     4000
Angle:  1   109.47    3.1399e-08      2000
Per MPI rank memory allocation (min/avg/max) = 7.995 | 8.053 | 8.801 Mbytes
   Step          Temp          E_pair         E_mol          TotEng         Press     
         0   92.838203     -943.01069      0             -791.33916      23.736691    
       150   94.493619     -940.24536      0             -785.86934      11.774565    
       300   93.730789     -937.97263      0             -784.84286      1.1493058    
       450   97.351935     -934.74324      0             -775.69754     -4.1494794    
       600   95.041187     -936.25686      0             -780.98627     -12.19603     
       750   94.083397     -932.85309      0             -779.14726     -12.704016    
       900   94.499029     -927.934        0             -773.54914     -9.1096489    
      1050   96.24932      -923.97976      0             -766.73542     -5.4184161    
      1200   94.912464     -922.6799       0             -767.61961     -5.0655253    
      1350   93.768394     -922.03417      0             -768.84296     -5.0771033    
      1500   92.511134     -922.3784       0             -771.2412      -5.2170997    
Loop time of 9.10244 on 640 procs for 1500 steps with 14640 atoms

Performance: 0.712 ns/day, 33.713 hours/ns, 164.791 timesteps/s, 2.413 Matom-step/s
100.0% CPU use with 640 MPI tasks x 1 OpenMP threads

MPI task timing breakdown:
Section |  min time  |  avg time  |  max time  |%varavg| %total
---------------------------------------------------------------
Pair    | 0.0001264  | 0.076511   | 4.0871     | 144.0 |  0.84
Bond    | 0.00012161 | 0.00025856 | 0.0004973  |   0.0 |  0.00
Kspace  | 4.4293     | 8.3721     | 8.5435     |  13.6 | 91.98
Neigh   | 0.017004   | 0.018056   | 0.018329   |   0.2 |  0.20
Comm    | 0.00077999 | 0.062295   | 0.47532    |  43.5 |  0.68
Output  | 0.0019998  | 0.0020449  | 0.0021753  |   0.1 |  0.02
Modify  | 0.21565    | 0.54038    | 0.71612    |  13.7 |  5.94
Other   |            | 0.03083    |            |       |  0.34

Nlocal:         22.875 ave         613 max           0 min
Histogram: 555 63 6 3 2 1 1 1 4 4
Nghost:        225.781 ave        3267 max           0 min
Histogram: 465 110 28 10 11 6 6 2 0 2
Neighs:        3199.95 ave      168628 max           0 min
Histogram: 623 5 1 2 0 1 1 4 1 2

Total # of neighbors = 2047966
Ave neighs/atom = 139.88839
Ave special neighs/atom = 0.81967213
Neighbor list builds = 4
Dangerous builds = 0
unfix NVT1
reset_timestep 0

######### NVT equilibration for 10 ns #############

thermo 10000
#dump DUMP1 all atom 100 nvt_equi.lammpstrj
timestep 0.001
fix NVT1 H2O nvt temp 300 300 $(100.0*dt)
fix NVT1 H2O nvt temp 300 300 0.10000000000000000555
run 10000000
PPPM initialization ...
  using 12-bit tables for long-range coulomb (src/kspace.cpp:342)
  G vector (1/distance) = 0.28515695
  grid = 80 80 80
  stencil order = 5
  estimated absolute RMS force accuracy = 0.00017907316
  estimated relative force accuracy = 1.2435943e-05
  using double precision KISS FFT
  3d grid and FFT values/proc = 4335 960
Generated 0 of 3 mixed pair_coeff terms from geometric mixing rule
SHAKE stats (type/ave/delta/count) on step 0
Bond:   1   1         4.21827e-09     4000
Angle:  1   109.47    4.72636e-07     2000
Per MPI rank memory allocation (min/avg/max) = 7.995 | 8.053 | 8.801 Mbytes
   Step          Temp          E_pair         E_mol          TotEng         Press     
         0   92.511134     -922.3784       0             -771.2412      -5.2974942    
SHAKE stats (type/ave/delta/count) on step 10000
Bond:   1   1         1.12212e-06     4000
Angle:  1   109.47    8.9863e-05      2000
     10000   95.31697      -927.68119      0             -771.96005     -6.2990471    
SHAKE stats (type/ave/delta/count) on step 20000
Bond:   1   1         1.20401e-06     4000
Angle:  1   109.47    9.19547e-05     2000
     20000   97.381724     -924.88006      0             -765.78569      1.8011193    
SHAKE stats (type/ave/delta/count) on step 30000
Bond:   1   1         1.09451e-06     4000
Angle:  1   109.47    8.79371e-05     2000
     30000   94.116074     -923.91579      0             -770.15658      2.3598947    
SHAKE stats (type/ave/delta/count) on step 40000
Bond:   1   1         1.24854e-06     4000
Angle:  1   109.47    9.15126e-05     2000
     40000   95.43465      -928.79998      0             -772.88658     -6.2277883    
SHAKE stats (type/ave/delta/count) on step 50000
Bond:   1   1         1.2753e-06      4000
Angle:  1   109.47    9.57375e-05     2000
     50000   95.01165      -924.56739      0             -769.34505     -2.9494269    
SHAKE stats (type/ave/delta/count) on step 60000
Bond:   1   1         1.2504e-06      4000
Angle:  1   109.47    9.93901e-05     2000
     60000   97.477141     -923.10571      0             -763.85545     -2.1314206    
SHAKE stats (type/ave/delta/count) on step 70000
Bond:   1   1         1.28286e-06     4000
Angle:  1   109.47    9.51723e-05     2000
     70000   93.648126     -929.70619      0             -776.71147     -2.7907241    
SHAKE stats (type/ave/delta/count) on step 80000
Bond:   1   1         1.16024e-06     4000
Angle:  1   109.47    8.88567e-05     2000
     80000   94.833184     -927.01068      0             -772.07991     -3.1539674    
SHAKE stats (type/ave/delta/count) on step 90000
Bond:   1   1         1.56318e-06     4000
Angle:  1   109.47    9.70641e-05     2000
     90000   95.753781     -928.0752       0             -771.64043      0.17839708   
SHAKE stats (type/ave/delta/count) on step 100000
Bond:   1   1         1.32469e-06     4000
Angle:  1   109.47    0.000128457     2000
    100000   93.306279     -927.76237      0             -775.32613     -6.3383519    
SHAKE stats (type/ave/delta/count) on step 110000
Bond:   1   1         1.26143e-06     4000
Angle:  1   109.47    9.84284e-05     2000
    110000   96.039596     -926.36966      0             -769.46795     -11.247263    
SHAKE stats (type/ave/delta/count) on step 120000
Bond:   1   1         1.18436e-06     4000
Angle:  1   109.47    9.97801e-05     2000
    120000   94.615169     -931.49201      0             -776.91742     -5.1878661    
SHAKE stats (type/ave/delta/count) on step 130000
Bond:   1   1         1.76321e-06     4000
Angle:  1   109.47    0.000129405     2000
    130000   94.622396     -928.50533      0             -773.91893     -9.1963321    
SHAKE stats (type/ave/delta/count) on step 140000
Bond:   1   1         1.64697e-06     4000
Angle:  1   109.47    0.000111152     2000
    140000   95.913831     -923.31652      0             -766.62027     -0.89500429   
SHAKE stats (type/ave/delta/count) on step 150000
Bond:   1   1         1.86116e-06     4000
Angle:  1   109.47    0.000163545     2000
    150000   94.838887     -920.1548       0             -765.21471     -5.3943851    
SHAKE stats (type/ave/delta/count) on step 160000
Bond:   1   1         1.24222e-06     4000
Angle:  1   109.47    8.94112e-05     2000
    160000   96.246725     -926.49836      0             -769.25826     -10.98725     
SHAKE stats (type/ave/delta/count) on step 170000
Bond:   1   1         1.22432e-06     4000
Angle:  1   109.47    0.000110811     2000
    170000   94.822222     -926.15064      0             -771.23778     -12.196988    
SHAKE stats (type/ave/delta/count) on step 180000
Bond:   1   1         1.79004e-06     4000
Angle:  1   109.47    0.000122717     2000
    180000   94.530913     -923.96362      0             -769.52668     -11.477324    
SHAKE stats (type/ave/delta/count) on step 190000
Bond:   1   1         1.50592e-06     4000
Angle:  1   109.47    0.000114228     2000
    190000   95.633559     -929.589        0             -773.35064     -13.552684    
SHAKE stats (type/ave/delta/count) on step 200000
Bond:   1   1         1.14316e-06     4000
Angle:  1   109.47    0.000100128     2000
    200000   95.587663     -933.19153      0             -777.02815     -14.299345    
SHAKE stats (type/ave/delta/count) on step 210000
Bond:   1   1         1.32471e-06     4000
Angle:  1   109.47    9.72835e-05     2000
    210000   92.660577     -924.85798      0             -773.47663     -10.464677    
SHAKE stats (type/ave/delta/count) on step 220000
Bond:   1   1         1.13666e-06     4000
Angle:  1   109.47    9.16062e-05     2000
    220000   95.524049     -923.66184      0             -767.60239     -8.75713      
SHAKE stats (type/ave/delta/count) on step 230000
Bond:   1   1         1.17254e-06     4000
Angle:  1   109.47    0.000116482     2000
    230000   94.112569     -925.20604      0             -771.45255     -0.90673527   
SHAKE stats (type/ave/delta/count) on step 240000
Bond:   1   1         1.13888e-06     4000
Angle:  1   109.47    0.000104453     2000
    240000   94.771672     -930.18297      0             -775.35269     -0.36829724   
SHAKE stats (type/ave/delta/count) on step 250000
Bond:   1   1         1.47794e-06     4000
Angle:  1   109.47    0.000106495     2000
    250000   91.737347     -927.59389      0             -777.72085     -5.7166281    
SHAKE stats (type/ave/delta/count) on step 260000
Bond:   1   1         1.46134e-06     4000
Angle:  1   109.47    9.78021e-05     2000
    260000   95.317243     -926.02762      0             -770.30603     -2.8266401    
SHAKE stats (type/ave/delta/count) on step 270000
Bond:   1   1         1.22413e-06     4000
Angle:  1   109.47    9.86685e-05     2000
    270000   96.536132     -925.47147      0             -767.75856     -13.666317    
SHAKE stats (type/ave/delta/count) on step 280000
Bond:   1   1         1.19239e-06     4000
Angle:  1   109.47    9.95047e-05     2000
    280000   94.445105     -926.65985      0             -772.36309     -10.073521    
SHAKE stats (type/ave/delta/count) on step 290000
Bond:   1   1         1.11225e-06     4000
Angle:  1   109.47    9.70822e-05     2000
    290000   94.484284     -930.94594      0             -776.58517     -0.0082996619 
SHAKE stats (type/ave/delta/count) on step 300000
Bond:   1   1         1.5325e-06      4000
Angle:  1   109.47    0.000109321     2000
    300000   94.04763      -927.02218      0             -773.37478     -5.2480438    
SHAKE stats (type/ave/delta/count) on step 310000
Bond:   1   1         1.10384e-06     4000
Angle:  1   109.47    8.80825e-05     2000
    310000   96.115416     -926.80011      0             -769.77453     -2.7167787    
SHAKE stats (type/ave/delta/count) on step 320000
Bond:   1   1         1.68439e-06     4000
Angle:  1   109.47    0.000132233     2000
    320000   95.534134     -928.31435      0             -772.23842      6.2953175    
SHAKE stats (type/ave/delta/count) on step 330000
Bond:   1   1         1.26109e-06     4000
Angle:  1   109.47    9.28165e-05     2000
    330000   94.380364     -926.28355      0             -772.09256      1.0648488    
SHAKE stats (type/ave/delta/count) on step 340000
Bond:   1   1         1.24284e-06     4000
Angle:  1   109.47    9.83745e-05     2000
    340000   94.421541     -931.05018      0             -776.79191     -3.3551278    
SHAKE stats (type/ave/delta/count) on step 350000
Bond:   1   1         1.50524e-06     4000
Angle:  1   109.47    0.000104181     2000
    350000   95.158137     -920.74851      0             -765.28686      1.9198185    
SHAKE stats (type/ave/delta/count) on step 360000
Bond:   1   1         1.31879e-06     4000
Angle:  1   109.47    9.21039e-05     2000
    360000   94.323865     -917.4998       0             -763.40111      4.3069516    
SHAKE stats (type/ave/delta/count) on step 370000
Bond:   1   1         1.28325e-06     4000
Angle:  1   109.47    0.000109447     2000
    370000   93.502865     -925.83378      0             -773.07638     -17.440192    
SHAKE stats (type/ave/delta/count) on step 380000
Bond:   1   1         1.09368e-06     4000
Angle:  1   109.47    9.62616e-05     2000
    380000   96.868731     -929.45299      0             -771.1967      -7.5162083    
SHAKE stats (type/ave/delta/count) on step 390000
Bond:   1   1         1.44856e-06     4000
Angle:  1   109.47    9.56317e-05     2000
    390000   93.735472     -935.26179      0             -782.12437     -2.6014358    
SHAKE stats (type/ave/delta/count) on step 400000
Bond:   1   1         1.33792e-06     4000
Angle:  1   109.47    0.000100862     2000
    400000   98.668028     -927.65831      0             -766.46248     -2.9985765    
SHAKE stats (type/ave/delta/count) on step 410000
Bond:   1   1         1.59995e-06     4000
Angle:  1   109.47    0.000114725     2000
    410000   92.808787     -924.1932       0             -772.56973     -4.4514271    
SHAKE stats (type/ave/delta/count) on step 420000
Bond:   1   1         1.54124e-06     4000
Angle:  1   109.47    9.54757e-05     2000
    420000   94.549344     -922.37642      0             -767.90936     -10.058054    
SHAKE stats (type/ave/delta/count) on step 430000
Bond:   1   1         1.21349e-06     4000
Angle:  1   109.47    0.000115134     2000
    430000   93.617888     -921.71002      0             -768.7647      -5.3910884    
SHAKE stats (type/ave/delta/count) on step 440000
Bond:   1   1         1.14503e-06     4000
Angle:  1   109.47    8.79116e-05     2000
    440000   97.07137      -928.77814      0             -770.1908      -11.49514     
SHAKE stats (type/ave/delta/count) on step 450000
Bond:   1   1         1.26025e-06     4000
Angle:  1   109.47    9.62576e-05     2000
    450000   94.024993     -924.87239      0             -771.26197      3.4864319    
SHAKE stats (type/ave/delta/count) on step 460000
Bond:   1   1         1.38315e-06     4000
Angle:  1   109.47    9.81866e-05     2000
    460000   95.552591     -923.7921       0             -767.68602     -7.7057852    
SHAKE stats (type/ave/delta/count) on step 470000
Bond:   1   1         1.2146e-06      4000
Angle:  1   109.47    9.24089e-05     2000
    470000   95.213334     -927.34518      0             -771.79335     -9.5843321    
SHAKE stats (type/ave/delta/count) on step 480000
Bond:   1   1         1.32148e-06     4000
Angle:  1   109.47    0.000103874     2000
    480000   96.557204     -930.2402       0             -772.49286      0.91074813   
SHAKE stats (type/ave/delta/count) on step 490000
Bond:   1   1         1.23772e-06     4000
Angle:  1   109.47    9.0106e-05      2000
    490000   93.240267     -928.29901      0             -775.97061     -5.5265828    
SHAKE stats (type/ave/delta/count) on step 500000
Bond:   1   1         1.15788e-06     4000
Angle:  1   109.47    0.000106956     2000
    500000   97.41447      -922.39618      0             -763.24831     -16.027566    
SHAKE stats (type/ave/delta/count) on step 510000
Bond:   1   1         1.14407e-06     4000
Angle:  1   109.47    9.13288e-05     2000
    510000   93.090728     -927.9656       0             -775.88151     -3.666545     
SHAKE stats (type/ave/delta/count) on step 520000
Bond:   1   1         1.42073e-06     4000
Angle:  1   109.47    0.000102891     2000
    520000   94.050191     -928.62416      0             -774.97258     -12.548545    
SHAKE stats (type/ave/delta/count) on step 530000
Bond:   1   1         1.14216e-06     4000
Angle:  1   109.47    9.11301e-05     2000
    530000   93.154255     -928.47601      0             -776.28814     -10.680308    
SHAKE stats (type/ave/delta/count) on step 540000
Bond:   1   1         1.07353e-06     4000
Angle:  1   109.47    9.29318e-05     2000
    540000   93.449393     -923.53368      0             -770.86364     -12.24657     
SHAKE stats (type/ave/delta/count) on step 550000
Bond:   1   1         1.26738e-06     4000
Angle:  1   109.47    9.62521e-05     2000
    550000   93.819802     -928.60055      0             -775.32536     -10.354457    
SHAKE stats (type/ave/delta/count) on step 560000
Bond:   1   1         1.14476e-06     4000
Angle:  1   109.47    0.000100599     2000
    560000   93.515182     -928.70163      0             -775.9241      -7.8186868    
SHAKE stats (type/ave/delta/count) on step 570000
Bond:   1   1         1.51299e-06     4000
Angle:  1   109.47    0.000133534     2000
    570000   94.234368     -930.70022      0             -776.74774     -5.3128992    
SHAKE stats (type/ave/delta/count) on step 580000
Bond:   1   1         1.62696e-06     4000
Angle:  1   109.47    0.000127273     2000
    580000   96.008284     -929.915        0             -773.06445     -4.4840872    
SHAKE stats (type/ave/delta/count) on step 590000
Bond:   1   1         1.22088e-06     4000
Angle:  1   109.47    0.000103968     2000
    590000   93.394166     -925.44465      0             -772.86483     -0.70616378   
SHAKE stats (type/ave/delta/count) on step 600000
Bond:   1   1         1.22593e-06     4000
Angle:  1   109.47    9.79765e-05     2000
    600000   94.637707     -929.14059      0             -774.52917     -14.462858    
SHAKE stats (type/ave/delta/count) on step 610000
Bond:   1   1         1.56271e-06     4000
Angle:  1   109.47    0.000114932     2000
    610000   94.856147     -932.33385      0             -777.36557     -11.31011     
SHAKE stats (type/ave/delta/count) on step 620000
Bond:   1   1         1.14216e-06     4000
Angle:  1   109.47    9.18954e-05     2000
    620000   95.121107     -924.8534       0             -769.45224     -6.6075231    
SHAKE stats (type/ave/delta/count) on step 630000
Bond:   1   1         1.21487e-06     4000
Angle:  1   109.47    0.000108928     2000
    630000   94.572749     -931.33049      0             -776.8252      -13.506241    
SHAKE stats (type/ave/delta/count) on step 640000
Bond:   1   1         1.24638e-06     4000
Angle:  1   109.47    0.000105796     2000
    640000   92.083626     -927.47647      0             -777.0377      -9.4987521    
SHAKE stats (type/ave/delta/count) on step 650000
Bond:   1   1         1.12146e-06     4000
Angle:  1   109.47    9.1106e-05      2000
    650000   95.176466     -922.91634      0             -767.42474     -6.3612023    
SHAKE stats (type/ave/delta/count) on step 660000
Bond:   1   1         1.21049e-06     4000
Angle:  1   109.47    0.00010155      2000
    660000   93.395465     -925.66806      0             -773.08612     -5.6464109    
SHAKE stats (type/ave/delta/count) on step 670000
Bond:   1   1         1.36153e-06     4000
Angle:  1   109.47    0.000108131     2000
    670000   94.14646      -929.63768      0             -775.82882     -4.5446771    
SHAKE stats (type/ave/delta/count) on step 680000
Bond:   1   1         1.08811e-06     4000
Angle:  1   109.47    0.000104171     2000
    680000   96.281229     -927.5621       0             -770.26563     -1.4580003    
SHAKE stats (type/ave/delta/count) on step 690000
Bond:   1   1         1.36762e-06     4000
Angle:  1   109.47    9.78644e-05     2000
    690000   95.661759     -926.48071      0             -770.19628     -4.1258824    
SHAKE stats (type/ave/delta/count) on step 700000
Bond:   1   1         1.62845e-06     4000
Angle:  1   109.47    0.00014619      2000
    700000   93.32646      -929.80562      0             -777.33641      2.8558984    
SHAKE stats (type/ave/delta/count) on step 710000
Bond:   1   1         1.63656e-06     4000
Angle:  1   109.47    0.000105728     2000
    710000   94.556186     -928.57482      0             -774.09658     -16.845577    
SHAKE stats (type/ave/delta/count) on step 720000
Bond:   1   1         1.17245e-06     4000
Angle:  1   109.47    9.53617e-05     2000
    720000   95.29983      -924.18624      0             -768.4931      -7.7898846    
SHAKE stats (type/ave/delta/count) on step 730000
Bond:   1   1         1.29942e-06     4000
Angle:  1   109.47    8.93564e-05     2000
    730000   94.241984     -926.62769      0             -772.66277     -12.750131    
SHAKE stats (type/ave/delta/count) on step 740000
Bond:   1   1         1.5194e-06      4000
Angle:  1   109.47    9.77366e-05     2000
    740000   97.037612     -924.40899      0             -765.8768       8.1713654    
SHAKE stats (type/ave/delta/count) on step 750000
Bond:   1   1         1.34534e-06     4000
Angle:  1   109.47    9.34281e-05     2000
    750000   96.123033     -925.29856      0             -768.26054     -2.005243     
SHAKE stats (type/ave/delta/count) on step 760000
Bond:   1   1         1.14244e-06     4000
Angle:  1   109.47    9.73774e-05     2000
    760000   94.466517     -926.75341      0             -772.42167     -4.4146819    
SHAKE stats (type/ave/delta/count) on step 770000
Bond:   1   1         1.68248e-06     4000
Angle:  1   109.47    0.000132056     2000
    770000   93.469246     -926.417        0             -773.71452     -14.890533    
SHAKE stats (type/ave/delta/count) on step 780000
Bond:   1   1         1.78367e-06     4000
Angle:  1   109.47    0.000155415     2000
    780000   97.873442     -932.50794      0             -772.61024     -3.3084206    
SHAKE stats (type/ave/delta/count) on step 790000
Bond:   1   1         1.21095e-06     4000
Angle:  1   109.47    9.16829e-05     2000
    790000   91.772825     -930.22603      0             -780.29502     -7.823477     
SHAKE stats (type/ave/delta/count) on step 800000
Bond:   1   1         1.21624e-06     4000
Angle:  1   109.47    9.35185e-05     2000
    800000   92.896393     -925.60834      0             -773.84174     -8.1260592    
SHAKE stats (type/ave/delta/count) on step 810000
Bond:   1   1         1.32789e-06     4000
Angle:  1   109.47    9.77287e-05     2000
    810000   93.416767     -925.22851      0             -772.61176     -4.8854786    
SHAKE stats (type/ave/delta/count) on step 820000
Bond:   1   1         1.12753e-06     4000
Angle:  1   109.47    9.58544e-05     2000
    820000   93.849741     -925.92562      0             -772.60151     -4.2089083    
SHAKE stats (type/ave/delta/count) on step 830000
Bond:   1   1         1.41164e-06     4000
Angle:  1   109.47    0.000112535     2000
    830000   94.114212     -925.23496      0             -771.47879     -7.5798676    
SHAKE stats (type/ave/delta/count) on step 840000
Bond:   1   1         1.08881e-06     4000
Angle:  1   109.47    9.32581e-05     2000
    840000   94.382452     -929.44917      0             -775.25477     -4.6445193    
SHAKE stats (type/ave/delta/count) on step 850000
Bond:   1   1         1.26482e-06     4000
Angle:  1   109.47    9.29472e-05     2000
    850000   95.282526     -921.82092      0             -766.15605     -3.4480887    
SHAKE stats (type/ave/delta/count) on step 860000
Bond:   1   1         1.4093e-06      4000
Angle:  1   109.47    9.61418e-05     2000
    860000   94.926585     -929.93922      0             -774.85585     -2.5618716    
SHAKE stats (type/ave/delta/count) on step 870000
Bond:   1   1         1.8064e-06      4000
Angle:  1   109.47    0.000120623     2000
    870000   94.122345     -929.56234      0             -775.79288     -4.7815265    
SHAKE stats (type/ave/delta/count) on step 880000
Bond:   1   1         1.20093e-06     4000
Angle:  1   109.47    0.000104588     2000
    880000   95.149152     -925.24923      0             -769.80226     -3.5684629    
SHAKE stats (type/ave/delta/count) on step 890000
Bond:   1   1         1.29067e-06     4000
Angle:  1   109.47    9.71879e-05     2000
    890000   95.65971      -927.42838      0             -771.1473      -9.583333     
SHAKE stats (type/ave/delta/count) on step 900000
Bond:   1   1         1.05224e-06     4000
Angle:  1   109.47    8.87426e-05     2000
    900000   93.482829     -930.78431      0             -778.05964     -9.4928634    
SHAKE stats (type/ave/delta/count) on step 910000
Bond:   1   1         1.19393e-06     4000
Angle:  1   109.47    9.92361e-05     2000
    910000   93.782129     -926.9963       0             -773.78266     -7.1005383    
SHAKE stats (type/ave/delta/count) on step 920000
Bond:   1   1         1.32678e-06     4000
Angle:  1   109.47    0.000102967     2000
    920000   97.097588     -922.28213      0             -763.65196     -6.4778325    
SHAKE stats (type/ave/delta/count) on step 930000
Bond:   1   1         1.42253e-06     4000
Angle:  1   109.47    9.44259e-05     2000
    930000   94.373097     -923.92158      0             -769.74246     -4.9162643    
SHAKE stats (type/ave/delta/count) on step 940000
Bond:   1   1         1.33589e-06     4000
Angle:  1   109.47    0.00011333      2000
    940000   93.818675     -924.93855      0             -771.6652      -11.295744    
SHAKE stats (type/ave/delta/count) on step 950000
Bond:   1   1         1.8786e-06      4000
Angle:  1   109.47    0.000134491     2000
    950000   95.153066     -927.7385       0             -772.28513     -1.0046177    
SHAKE stats (type/ave/delta/count) on step 960000
Bond:   1   1         1.33717e-06     4000
Angle:  1   109.47    0.000103308     2000
    960000   94.528746     -929.70669      0             -775.27328     -7.7281248    
SHAKE stats (type/ave/delta/count) on step 970000
Bond:   1   1         1.34332e-06     4000
Angle:  1   109.47    0.000101577     2000
    970000   96.308954     -929.81835      0             -772.47658     -7.7482575    
SHAKE stats (type/ave/delta/count) on step 980000
Bond:   1   1         1.36606e-06     4000
Angle:  1   109.47    9.4481e-05      2000
    980000   97.070926     -931.98815      0             -773.40154     -12.149485    
SHAKE stats (type/ave/delta/count) on step 990000
Bond:   1   1         1.32196e-06     4000
Angle:  1   109.47    0.00011101      2000
    990000   95.34456      -928.00694      0             -772.24072      3.7050483    
SHAKE stats (type/ave/delta/count) on step 1000000
Bond:   1   1         1.78581e-06     4000
Angle:  1   109.47    0.000160294     2000
   1000000   96.741227     -930.13462      0             -772.08664      2.1863615    
SHAKE stats (type/ave/delta/count) on step 1010000
Bond:   1   1         1.10785e-06     4000
Angle:  1   109.47    9.79956e-05     2000
   1010000   93.700512     -929.8602       0             -776.77989     -2.1873236    
SHAKE stats (type/ave/delta/count) on step 1020000
Bond:   1   1         1.0701e-06      4000
Angle:  1   109.47    9.48636e-05     2000
   1020000   94.785398     -930.99857      0             -776.14586     -5.2760145    
SHAKE stats (type/ave/delta/count) on step 1030000
Bond:   1   1         1.21669e-06     4000
Angle:  1   109.47    9.47063e-05     2000
   1030000   94.024083     -928.74598      0             -775.13705     -8.3385461    
SHAKE stats (type/ave/delta/count) on step 1040000
Bond:   1   1         1.39479e-06     4000
Angle:  1   109.47    0.000114109     2000
   1040000   97.440134     -929.7079       0             -770.51811     -4.9057253    
SHAKE stats (type/ave/delta/count) on step 1050000
Bond:   1   1         1.41298e-06     4000
Angle:  1   109.47    0.000100496     2000
   1050000   96.275234     -923.90979      0             -766.62311     -5.532557     
SHAKE stats (type/ave/delta/count) on step 1060000
Bond:   1   1         1.25092e-06     4000
Angle:  1   109.47    9.60954e-05     2000
   1060000   96.011593     -922.89857      0             -766.04261     -13.448921    
SHAKE stats (type/ave/delta/count) on step 1070000
Bond:   1   1         1.10839e-06     4000
Angle:  1   109.47    0.000102642     2000
   1070000   92.201734     -923.67998      0             -773.04826      0.31014038   
SHAKE stats (type/ave/delta/count) on step 1080000
Bond:   1   1         1.25978e-06     4000
Angle:  1   109.47    9.42222e-05     2000
   1080000   95.085565     -930.38385      0             -775.04076     -2.446907     
SHAKE stats (type/ave/delta/count) on step 1090000
Bond:   1   1         1.17129e-06     4000
Angle:  1   109.47    0.000121701     2000
   1090000   95.32154      -933.85945      0             -778.13084     -4.1325522    
SHAKE stats (type/ave/delta/count) on step 1100000
Bond:   1   1         1.6072e-06      4000
Angle:  1   109.47    0.000129153     2000
   1100000   93.173709     -930.01304      0             -777.79338      1.6220431    
SHAKE stats (type/ave/delta/count) on step 1110000
Bond:   1   1         1.28508e-06     4000
Angle:  1   109.47    9.38443e-05     2000
   1110000   94.814252     -931.67387      0             -776.77403     -6.5361497    
SHAKE stats (type/ave/delta/count) on step 1120000
Bond:   1   1         1.08184e-06     4000
Angle:  1   109.47    8.8921e-05      2000
   1120000   97.386338     -924.04719      0             -764.94528     -8.1195584    
SHAKE stats (type/ave/delta/count) on step 1130000
Bond:   1   1         1.16828e-06     4000
Angle:  1   109.47    9.38809e-05     2000
   1130000   97.011595     -933.07786      0             -774.58818     -3.1103447    
SHAKE stats (type/ave/delta/count) on step 1140000
Bond:   1   1         1.33276e-06     4000
Angle:  1   109.47    9.56125e-05     2000
   1140000   96.923126     -931.63292      0             -773.28777     -5.6445244    
SHAKE stats (type/ave/delta/count) on step 1150000
Bond:   1   1         1.22226e-06     4000
Angle:  1   109.47    9.42185e-05     2000
   1150000   95.062792     -930.07544      0             -774.76955     -1.8430881    
SHAKE stats (type/ave/delta/count) on step 1160000
Bond:   1   1         1.42114e-06     4000
Angle:  1   109.47    0.000121046     2000
   1160000   93.641748     -921.83689      0             -768.85259      3.1431376    
SHAKE stats (type/ave/delta/count) on step 1170000
Bond:   1   1         1.08119e-06     4000
Angle:  1   109.47    0.000117149     2000
   1170000   95.287678     -929.32116      0             -773.64787      2.6975571    
SHAKE stats (type/ave/delta/count) on step 1180000
Bond:   1   1         1.10388e-06     4000
Angle:  1   109.47    9.39894e-05     2000
   1180000   96.340838     -925.84495      0             -768.45109     -7.0208055    
SHAKE stats (type/ave/delta/count) on step 1190000
Bond:   1   1         1.16623e-06     4000
Angle:  1   109.47    9.09436e-05     2000
   1190000   94.110017     -927.66306      0             -773.91374     -7.8716387    
SHAKE stats (type/ave/delta/count) on step 1200000
Bond:   1   1         1.23324e-06     4000
Angle:  1   109.47    0.00010867      2000
   1200000   95.456714     -930.18002      0             -774.23057     -9.9464339    
SHAKE stats (type/ave/delta/count) on step 1210000
Bond:   1   1         1.12514e-06     4000
Angle:  1   109.47    9.02977e-05     2000
   1210000   94.227433     -927.72255      0             -773.7814       6.2694105    
SHAKE stats (type/ave/delta/count) on step 1220000
Bond:   1   1         1.19587e-06     4000
Angle:  1   109.47    8.96219e-05     2000
   1220000   93.778031     -929.70241      0             -776.49547     -4.6545587    
SHAKE stats (type/ave/delta/count) on step 1230000
Bond:   1   1         1.05777e-06     4000
Angle:  1   109.47    9.1095e-05      2000
   1230000   92.732204     -931.8451       0             -780.34674     -0.69418447   
SHAKE stats (type/ave/delta/count) on step 1240000
Bond:   1   1         1.1491e-06      4000
Angle:  1   109.47    9.96893e-05     2000
   1240000   96.399225     -927.01778      0             -769.52854     -9.2044858    
SHAKE stats (type/ave/delta/count) on step 1250000
Bond:   1   1         1.15713e-06     4000
Angle:  1   109.47    9.6456e-05      2000
   1250000   95.966076     -928.90178      0             -772.12018     -10.330175    
SHAKE stats (type/ave/delta/count) on step 1260000
Bond:   1   1         1.69313e-06     4000
Angle:  1   109.47    0.000119726     2000
   1260000   94.861713     -929.84391      0             -774.86653     -15.068653    
SHAKE stats (type/ave/delta/count) on step 1270000
Bond:   1   1         1.18004e-06     4000
Angle:  1   109.47    9.00972e-05     2000
   1270000   94.150044     -923.77433      0             -769.95962     -11.895652    
SHAKE stats (type/ave/delta/count) on step 1280000
Bond:   1   1         1.3091e-06      4000
Angle:  1   109.47    0.000118521     2000
   1280000   97.189899     -930.98599      0             -772.20501     -8.2992665    
SHAKE stats (type/ave/delta/count) on step 1290000
Bond:   1   1         1.28792e-06     4000
Angle:  1   109.47    9.91697e-05     2000
   1290000   95.168868     -922.36238      0             -766.88319     -6.7936847    
SHAKE stats (type/ave/delta/count) on step 1300000
Bond:   1   1         1.27204e-06     4000
Angle:  1   109.47    9.05898e-05     2000
   1300000   96.038591     -923.79683      0             -766.89676     -10.649488    
SHAKE stats (type/ave/delta/count) on step 1310000
Bond:   1   1         1.0448e-06      4000
Angle:  1   109.47    9.57027e-05     2000
   1310000   96.488387     -933.17738      0             -775.54247     -2.1875067    
SHAKE stats (type/ave/delta/count) on step 1320000
Bond:   1   1         1.08235e-06     4000
Angle:  1   109.47    9.56079e-05     2000
   1320000   93.888729     -927.3559       0             -773.9681      -5.6689849    
SHAKE stats (type/ave/delta/count) on step 1330000
Bond:   1   1         1.3008e-06      4000
Angle:  1   109.47    9.8567e-05      2000
   1330000   93.55783      -934.04318      0             -781.19597     -7.0873532    
SHAKE stats (type/ave/delta/count) on step 1340000
Bond:   1   1         1.45485e-06     4000
Angle:  1   109.47    0.000106106     2000
   1340000   93.838543     -934.65801      0             -781.3522      -1.1918696    
SHAKE stats (type/ave/delta/count) on step 1350000
Bond:   1   1         1.09864e-06     4000
Angle:  1   109.47    9.16401e-05     2000
   1350000   94.406242     -931.7749       0             -777.54163     -5.654971     
SHAKE stats (type/ave/delta/count) on step 1360000
Bond:   1   1         1.34467e-06     4000
Angle:  1   109.47    9.14669e-05     2000
   1360000   93.663295     -929.26617      0             -776.24667     -2.7976029    
SHAKE stats (type/ave/delta/count) on step 1370000
Bond:   1   1         1.73427e-06     4000
Angle:  1   109.47    9.45451e-05     2000
   1370000   96.1798       -923.72534      0             -766.59458     -2.472754     
SHAKE stats (type/ave/delta/count) on step 1380000
Bond:   1   1         1.38302e-06     4000
Angle:  1   109.47    8.93281e-05     2000
   1380000   95.217651     -927.44167      0             -771.88279      0.33426368   
SHAKE stats (type/ave/delta/count) on step 1390000
Bond:   1   1         1.21573e-06     4000
Angle:  1   109.47    9.17664e-05     2000
   1390000   95.393818     -929.45318      0             -773.60649     -5.5498989    
SHAKE stats (type/ave/delta/count) on step 1400000
Bond:   1   1         1.23654e-06     4000
Angle:  1   109.47    9.4734e-05      2000
   1400000   94.586924     -923.56279      0             -769.03434     -14.196867    
SHAKE stats (type/ave/delta/count) on step 1410000
Bond:   1   1         1.39755e-06     4000
Angle:  1   109.47    0.000111679     2000
   1410000   95.325458     -928.5845       0             -772.84949     -10.528418    
SHAKE stats (type/ave/delta/count) on step 1420000
Bond:   1   1         1.11648e-06     4000
Angle:  1   109.47    9.77849e-05     2000
   1420000   97.255913     -923.64148      0             -764.75264     -6.2328253    
SHAKE stats (type/ave/delta/count) on step 1430000
Bond:   1   1         1.18102e-06     4000
Angle:  1   109.47    9.19174e-05     2000
   1430000   94.99994      -930.81262      0             -775.60942     -3.2151211    
SHAKE stats (type/ave/delta/count) on step 1440000
Bond:   1   1         1.23283e-06     4000
Angle:  1   109.47    8.59939e-05     2000
   1440000   95.181821     -932.49892      0             -776.99858     -2.254823     
SHAKE stats (type/ave/delta/count) on step 1450000
Bond:   1   1         1.55484e-06     4000
Angle:  1   109.47    0.000122725     2000
   1450000   94.988458     -929.59535      0             -774.41091     -13.087342    
SHAKE stats (type/ave/delta/count) on step 1460000
Bond:   1   1         1.12761e-06     4000
Angle:  1   109.47    0.000104218     2000
   1460000   95.148846     -925.37528      0             -769.92881     -14.692934    
SHAKE stats (type/ave/delta/count) on step 1470000
Bond:   1   1         1.41465e-06     4000
Angle:  1   109.47    0.000107037     2000
   1470000   95.765243     -932.05945      0             -775.60595     -10.808751    
SHAKE stats (type/ave/delta/count) on step 1480000
Bond:   1   1         1.14728e-06     4000
Angle:  1   109.47    0.000109698     2000
   1480000   95.776592     -931.87326      0             -775.40122     -1.4915581    
SHAKE stats (type/ave/delta/count) on step 1490000
Bond:   1   1         1.47841e-06     4000
Angle:  1   109.47    0.000103028     2000
   1490000   94.543894     -924.0916       0             -769.63345      2.4498628    
SHAKE stats (type/ave/delta/count) on step 1500000
Bond:   1   1         1.03484e-06     4000
Angle:  1   109.47    9.7207e-05      2000
   1500000   97.973281     -929.0933       0             -769.03249     -1.6549543    
SHAKE stats (type/ave/delta/count) on step 1510000
Bond:   1   1         1.19864e-06     4000
Angle:  1   109.47    9.98154e-05     2000
   1510000   95.172778     -924.2975       0             -768.81193     -10.210829    
SHAKE stats (type/ave/delta/count) on step 1520000
Bond:   1   1         1.26389e-06     4000
Angle:  1   109.47    0.000102311     2000
   1520000   95.054163     -925.78655      0             -770.49477     -3.4674424    
SHAKE stats (type/ave/delta/count) on step 1530000
Bond:   1   1         1.41241e-06     4000
Angle:  1   109.47    9.77513e-05     2000
   1530000   96.556989     -928.49711      0             -770.75012     -6.624862     
SHAKE stats (type/ave/delta/count) on step 1540000
Bond:   1   1         1.05051e-06     4000
Angle:  1   109.47    8.48796e-05     2000
   1540000   93.397557     -932.5468       0             -779.96144     -15.192312    
SHAKE stats (type/ave/delta/count) on step 1550000
Bond:   1   1         1.87498e-06     4000
Angle:  1   109.47    0.000130791     2000
   1550000   96.268384     -929.66828      0             -772.3928      -7.0988088    
SHAKE stats (type/ave/delta/count) on step 1560000
Bond:   1   1         1.09487e-06     4000
Angle:  1   109.47    9.16066e-05     2000
   1560000   95.689171     -931.81746      0             -775.48825     -12.93837     
SHAKE stats (type/ave/delta/count) on step 1570000
Bond:   1   1         1.5558e-06      4000
Angle:  1   109.47    0.000105469     2000
   1570000   95.74141      -925.10885      0             -768.6943       3.0284226    
SHAKE stats (type/ave/delta/count) on step 1580000
Bond:   1   1         1.37273e-06     4000
Angle:  1   109.47    0.000111673     2000
   1580000   95.739943     -932.51789      0             -776.10573     -4.3632697    
SHAKE stats (type/ave/delta/count) on step 1590000
Bond:   1   1         1.38756e-06     4000
Angle:  1   109.47    0.000103205     2000
   1590000   94.148942     -927.4944       0             -773.68148     -8.2514961    
SHAKE stats (type/ave/delta/count) on step 1600000
Bond:   1   1         1.06016e-06     4000
Angle:  1   109.47    8.9286e-05      2000
   1600000   94.396567     -929.44996      0             -775.2325      -5.3318488    
SHAKE stats (type/ave/delta/count) on step 1610000
Bond:   1   1         1.21526e-06     4000
Angle:  1   109.47    0.000110037     2000
   1610000   96.531413     -926.63231      0             -768.92711     -14.233611    
SHAKE stats (type/ave/delta/count) on step 1620000
Bond:   1   1         1.2963e-06      4000
Angle:  1   109.47    9.20976e-05     2000
   1620000   93.297573     -928.48064      0             -776.05863     -10.193016    
SHAKE stats (type/ave/delta/count) on step 1630000
Bond:   1   1         1.26257e-06     4000
Angle:  1   109.47    9.93179e-05     2000
   1630000   93.609204     -924.44594      0             -771.51481     -2.4982159    
SHAKE stats (type/ave/delta/count) on step 1640000
Bond:   1   1         1.34818e-06     4000
Angle:  1   109.47    8.97176e-05     2000
   1640000   95.981068     -930.59917      0             -773.79308     -9.1826362    
SHAKE stats (type/ave/delta/count) on step 1650000
Bond:   1   1         1.17444e-06     4000
Angle:  1   109.47    9.57993e-05     2000
   1650000   94.048061     -929.14013      0             -775.49203     -9.068458     
SHAKE stats (type/ave/delta/count) on step 1660000
Bond:   1   1         1.75392e-06     4000
Angle:  1   109.47    0.000127173     2000
   1660000   91.833152     -927.71723      0             -777.68766     -7.4889739    
SHAKE stats (type/ave/delta/count) on step 1670000
Bond:   1   1         1.16421e-06     4000
Angle:  1   109.47    9.62718e-05     2000
   1670000   93.415292     -927.29705      0             -774.68271     -10.009989    
SHAKE stats (type/ave/delta/count) on step 1680000
Bond:   1   1         1.3208e-06      4000
Angle:  1   109.47    9.87758e-05     2000
   1680000   93.573912     -926.35563      0             -773.48215     -9.8545669    
SHAKE stats (type/ave/delta/count) on step 1690000
Bond:   1   1         1.2771e-06      4000
Angle:  1   109.47    9.5019e-05      2000
   1690000   93.550505     -928.67712      0             -775.84188      2.6195501    
SHAKE stats (type/ave/delta/count) on step 1700000
Bond:   1   1         1.40561e-06     4000
Angle:  1   109.47    0.000122318     2000
   1700000   94.418758     -931.17786      0             -776.92414      3.9666516    
SHAKE stats (type/ave/delta/count) on step 1710000
Bond:   1   1         1.18146e-06     4000
Angle:  1   109.47    9.70622e-05     2000
   1710000   94.636012     -932.13836      0             -777.52972     -6.9790291    
SHAKE stats (type/ave/delta/count) on step 1720000
Bond:   1   1         1.44932e-06     4000
Angle:  1   109.47    9.25522e-05     2000
   1720000   92.835835     -929.86658      0             -778.19891      0.41596723   
SHAKE stats (type/ave/delta/count) on step 1730000
Bond:   1   1         1.604e-06       4000
Angle:  1   109.47    9.14779e-05     2000
   1730000   95.154555     -925.18946      0             -769.73366     -3.9237455    
SHAKE stats (type/ave/delta/count) on step 1740000
Bond:   1   1         1.39754e-06     4000
Angle:  1   109.47    0.000106433     2000
   1740000   95.39832      -927.27041      0             -771.41636     -18.817503    
SHAKE stats (type/ave/delta/count) on step 1750000
Bond:   1   1         1.47157e-06     4000
Angle:  1   109.47    0.000104436     2000
   1750000   93.599974     -924.64146      0             -771.7254      -8.2012457    
SHAKE stats (type/ave/delta/count) on step 1760000
Bond:   1   1         1.20867e-06     4000
Angle:  1   109.47    0.000100308     2000
   1760000   93.579438     -925.16643      0             -772.28392     -10.462654    
SHAKE stats (type/ave/delta/count) on step 1770000
Bond:   1   1         1.73889e-06     4000
Angle:  1   109.47    0.000107762     2000
   1770000   95.818896     -924.4821       0             -767.94095     -6.9480518    
SHAKE stats (type/ave/delta/count) on step 1780000
Bond:   1   1         1.46533e-06     4000
Angle:  1   109.47    0.000101538     2000
   1780000   96.497751     -928.16947      0             -770.51926     -13.663038    
SHAKE stats (type/ave/delta/count) on step 1790000
Bond:   1   1         1.21279e-06     4000
Angle:  1   109.47    9.66744e-05     2000
   1790000   94.253746     -921.36456      0             -767.38043     -2.5130042    
SHAKE stats (type/ave/delta/count) on step 1800000
Bond:   1   1         1.21633e-06     4000
Angle:  1   109.47    0.00010713      2000
   1800000   95.224577     -923.66013      0             -768.08994     -8.2970374    
SHAKE stats (type/ave/delta/count) on step 1810000
Bond:   1   1         1.61667e-06     4000
Angle:  1   109.47    9.60302e-05     2000
   1810000   94.892357     -926.90266      0             -771.87522     -4.8065534    
SHAKE stats (type/ave/delta/count) on step 1820000
Bond:   1   1         1.54666e-06     4000
Angle:  1   109.47    0.000116248     2000
   1820000   96.072755     -924.11533      0             -767.15945     -1.3135219    
SHAKE stats (type/ave/delta/count) on step 1830000
Bond:   1   1         1.21461e-06     4000
Angle:  1   109.47    0.000101624     2000
   1830000   95.296917     -929.57292      0             -773.88454     -17.11017     
SHAKE stats (type/ave/delta/count) on step 1840000
Bond:   1   1         1.27454e-06     4000
Angle:  1   109.47    9.5516e-05      2000
   1840000   94.65886      -921.23744      0             -766.59146     -7.6650733    
SHAKE stats (type/ave/delta/count) on step 1850000
Bond:   1   1         1.61745e-06     4000
Angle:  1   109.47    0.000135421     2000
   1850000   95.710574     -930.82441      0             -774.46023     -5.9355771    
SHAKE stats (type/ave/delta/count) on step 1860000
Bond:   1   1         1.66607e-06     4000
Angle:  1   109.47    0.000153069     2000
   1860000   96.056012     -925.93724      0             -769.00871      0.65034039   
SHAKE stats (type/ave/delta/count) on step 1870000
Bond:   1   1         1.22854e-06     4000
Angle:  1   109.47    9.59292e-05     2000
   1870000   95.805371     -922.86869      0             -766.34963     -9.0266576    
SHAKE stats (type/ave/delta/count) on step 1880000
Bond:   1   1         1.31624e-06     4000
Angle:  1   109.47    9.49073e-05     2000
   1880000   94.362179     -924.05429      0             -769.893       -5.8659571    
SHAKE stats (type/ave/delta/count) on step 1890000
Bond:   1   1         1.31675e-06     4000
Angle:  1   109.47    9.30618e-05     2000
   1890000   93.747459     -932.58794      0             -779.43094     -6.2621097    
SHAKE stats (type/ave/delta/count) on step 1900000
Bond:   1   1         1.13793e-06     4000
Angle:  1   109.47    9.79359e-05     2000
   1900000   95.817951     -922.08501      0             -765.5454      -0.19203843   
SHAKE stats (type/ave/delta/count) on step 1910000
Bond:   1   1         1.39961e-06     4000
Angle:  1   109.47    9.40448e-05     2000
   1910000   95.765705     -930.98569      0             -774.53144     -2.1794243    
SHAKE stats (type/ave/delta/count) on step 1920000
Bond:   1   1         1.32209e-06     4000
Angle:  1   109.47    9.95729e-05     2000
   1920000   95.817047     -923.8007       0             -767.26257     -3.5053087    
SHAKE stats (type/ave/delta/count) on step 1930000
Bond:   1   1         1.20595e-06     4000
Angle:  1   109.47    9.79117e-05     2000
   1930000   93.776828     -927.32768      0             -774.1227      -1.7117813    
SHAKE stats (type/ave/delta/count) on step 1940000
Bond:   1   1         1.18882e-06     4000
Angle:  1   109.47    9.53662e-05     2000
   1940000   94.647354     -925.71183      0             -771.08465     -5.8672805    
SHAKE stats (type/ave/delta/count) on step 1950000
Bond:   1   1         1.22646e-06     4000
Angle:  1   109.47    9.1291e-05      2000
   1950000   96.452663     -929.80965      0             -772.2331      -0.44231849   
SHAKE stats (type/ave/delta/count) on step 1960000
Bond:   1   1         1.29825e-06     4000
Angle:  1   109.47    0.000110841     2000
   1960000   94.471958     -928.69229      0             -774.35166     -4.3822163    
SHAKE stats (type/ave/delta/count) on step 1970000
Bond:   1   1         1.26172e-06     4000
Angle:  1   109.47    9.79821e-05     2000
   1970000   96.139065     -928.96604      0             -771.90182     -1.9635855    
SHAKE stats (type/ave/delta/count) on step 1980000
Bond:   1   1         1.3519e-06      4000
Angle:  1   109.47    0.000107355     2000
   1980000   95.057455     -932.58086      0             -777.2837       2.2876337    
SHAKE stats (type/ave/delta/count) on step 1990000
Bond:   1   1         1.638e-06       4000
Angle:  1   109.47    0.0001123       2000
   1990000   94.828436     -924.29805      0             -769.37504      6.0407818    
SHAKE stats (type/ave/delta/count) on step 2000000
Bond:   1   1         1.24693e-06     4000
Angle:  1   109.47    8.69234e-05     2000
   2000000   91.389679     -928.31303      0             -779.00798     -6.972975     
SHAKE stats (type/ave/delta/count) on step 2010000
Bond:   1   1         1.28824e-06     4000
Angle:  1   109.47    0.000103363     2000
   2010000   95.535779     -922.4331       0             -766.35449     -4.9652622    
SHAKE stats (type/ave/delta/count) on step 2020000
Bond:   1   1         1.33335e-06     4000
Angle:  1   109.47    0.000103773     2000
   2020000   96.121063     -928.69471      0             -771.6599      -5.6462969    
SHAKE stats (type/ave/delta/count) on step 2030000
Bond:   1   1         1.13803e-06     4000
Angle:  1   109.47    9.12862e-05     2000
   2030000   93.385894     -918.35658      0             -765.79027     -0.86069502   
SHAKE stats (type/ave/delta/count) on step 2040000
Bond:   1   1         1.44619e-06     4000
Angle:  1   109.47    0.000114609     2000
   2040000   97.519394     -925.78531      0             -766.46602     -5.7591855    
SHAKE stats (type/ave/delta/count) on step 2050000
Bond:   1   1         1.40016e-06     4000
Angle:  1   109.47    0.000115658     2000
   2050000   94.120418     -929.16112      0             -775.39481     -6.0320035    
SHAKE stats (type/ave/delta/count) on step 2060000
Bond:   1   1         1.1788e-06      4000
Angle:  1   109.47    9.83989e-05     2000
   2060000   95.127492     -923.82346      0             -768.41187      3.1285308    
SHAKE stats (type/ave/delta/count) on step 2070000
Bond:   1   1         1.32658e-06     4000
Angle:  1   109.47    9.87748e-05     2000
   2070000   94.10114      -929.34193      0             -775.60712     -10.693374    
SHAKE stats (type/ave/delta/count) on step 2080000
Bond:   1   1         1.33535e-06     4000
Angle:  1   109.47    0.00013044      2000
   2080000   94.154329     -924.19981      0             -770.3781      -6.318059     
SHAKE stats (type/ave/delta/count) on step 2090000
Bond:   1   1         1.22166e-06     4000
Angle:  1   109.47    9.51294e-05     2000
   2090000   93.634046     -921.56387      0             -768.59216     -4.2913167    
SHAKE stats (type/ave/delta/count) on step 2100000
Bond:   1   1         1.20922e-06     4000
Angle:  1   109.47    9.5688e-05      2000
   2100000   93.142811     -929.73078      0             -777.5616      -11.54701     
SHAKE stats (type/ave/delta/count) on step 2110000
Bond:   1   1         1.06966e-06     4000
Angle:  1   109.47    9.44459e-05     2000
   2110000   94.819343     -931.84516      0             -776.937       -9.0121394    
SHAKE stats (type/ave/delta/count) on step 2120000
Bond:   1   1         1.75617e-06     4000
Angle:  1   109.47    0.000127979     2000
   2120000   94.787904     -931.42414      0             -776.56734     -5.466017     
SHAKE stats (type/ave/delta/count) on step 2130000
Bond:   1   1         1.36766e-06     4000
Angle:  1   109.47    0.000111447     2000
   2130000   94.539957     -922.72844      0             -768.27672     -1.7978149    
SHAKE stats (type/ave/delta/count) on step 2140000
Bond:   1   1         1.46503e-06     4000
Angle:  1   109.47    0.000113921     2000
   2140000   91.7917       -927.37288      0             -777.41104     -8.3662434    
SHAKE stats (type/ave/delta/count) on step 2150000
Bond:   1   1         1.24844e-06     4000
Angle:  1   109.47    9.98795e-05     2000
   2150000   93.590381     -934.67295      0             -781.77257     -6.3979693    
SHAKE stats (type/ave/delta/count) on step 2160000
Bond:   1   1         1.31559e-06     4000
Angle:  1   109.47    0.000124776     2000
   2160000   95.041313     -929.24668      0             -773.97589     -1.7350021    
SHAKE stats (type/ave/delta/count) on step 2170000
Bond:   1   1         1.12346e-06     4000
Angle:  1   109.47    0.000104749     2000
   2170000   94.788607     -931.35502      0             -776.49707     -8.0435536    
SHAKE stats (type/ave/delta/count) on step 2180000
Bond:   1   1         1.09996e-06     4000
Angle:  1   109.47    0.000106111     2000
   2180000   95.162718     -930.01114      0             -774.54201     -0.54977147   
SHAKE stats (type/ave/delta/count) on step 2190000
Bond:   1   1         1.41978e-06     4000
Angle:  1   109.47    0.000115612     2000
   2190000   93.635115     -927.84541      0             -774.87195      3.8236292    
SHAKE stats (type/ave/delta/count) on step 2200000
Bond:   1   1         1.20318e-06     4000
Angle:  1   109.47    9.49994e-05     2000
   2200000   93.814314     -925.46532      0             -772.1991      -8.7585801    
SHAKE stats (type/ave/delta/count) on step 2210000
Bond:   1   1         1.36619e-06     4000
Angle:  1   109.47    0.000114909     2000
   2210000   95.54225      -929.25898      0             -773.16979     -2.3294287    
SHAKE stats (type/ave/delta/count) on step 2220000
Bond:   1   1         1.47744e-06     4000
Angle:  1   109.47    0.000115304     2000
   2220000   95.497616     -930.47061      0             -774.45434     -11.401051    
SHAKE stats (type/ave/delta/count) on step 2230000
Bond:   1   1         1.18765e-06     4000
Angle:  1   109.47    9.24144e-05     2000
   2230000   95.224239     -934.42617      0             -778.85652     -6.8373273    
SHAKE stats (type/ave/delta/count) on step 2240000
Bond:   1   1         2.04841e-06     4000
Angle:  1   109.47    0.000142753     2000
   2240000   93.634283     -926.94667      0             -773.97456      2.1298186    
SHAKE stats (type/ave/delta/count) on step 2250000
Bond:   1   1         1.23513e-06     4000
Angle:  1   109.47    0.000100949     2000
   2250000   96.156877     -925.03163      0             -767.93832     -2.4822872    
SHAKE stats (type/ave/delta/count) on step 2260000
Bond:   1   1         1.4015e-06      4000
Angle:  1   109.47    9.2454e-05      2000
   2260000   93.409964     -927.37222      0             -774.76659     -2.0842845    
SHAKE stats (type/ave/delta/count) on step 2270000
Bond:   1   1         1.87645e-06     4000
Angle:  1   109.47    0.000114881     2000
   2270000   95.83104      -930.19741      0             -773.63643     -8.2146244    
SHAKE stats (type/ave/delta/count) on step 2280000
Bond:   1   1         1.40357e-06     4000
Angle:  1   109.47    0.000121189     2000
   2280000   95.515083     -932.40502      0             -776.36021     -2.6404738    
SHAKE stats (type/ave/delta/count) on step 2290000
Bond:   1   1         1.18216e-06     4000
Angle:  1   109.47    0.00010224      2000
   2290000   94.347359     -931.43433      0             -777.29726     -12.276233    
SHAKE stats (type/ave/delta/count) on step 2300000
Bond:   1   1         1.16368e-06     4000
Angle:  1   109.47    9.01339e-05     2000
   2300000   96.097944     -932.7223       0             -775.72526     -8.9029253    
SHAKE stats (type/ave/delta/count) on step 2310000
Bond:   1   1         1.16498e-06     4000
Angle:  1   109.47    0.00011294      2000
   2310000   94.4103       -928.16814      0             -773.92825      3.8214664    
SHAKE stats (type/ave/delta/count) on step 2320000
Bond:   1   1         1.20724e-06     4000
Angle:  1   109.47    0.00010154      2000
   2320000   94.214448     -925.21771      0             -771.29778     -3.7615972    
SHAKE stats (type/ave/delta/count) on step 2330000
Bond:   1   1         1.69527e-06     4000
Angle:  1   109.47    0.000107832     2000
   2330000   95.415388     -927.47656      0             -771.59463     -6.352842     
SHAKE stats (type/ave/delta/count) on step 2340000
Bond:   1   1         1.15185e-06     4000
Angle:  1   109.47    8.99641e-05     2000
   2340000   94.455781     -931.53416      0             -777.21995      1.5263997    
SHAKE stats (type/ave/delta/count) on step 2350000
Bond:   1   1         1.23137e-06     4000
Angle:  1   109.47    0.000102039     2000
   2350000   96.087611     -933.88593      0             -776.90578     -2.1436432    
SHAKE stats (type/ave/delta/count) on step 2360000
Bond:   1   1         1.3793e-06      4000
Angle:  1   109.47    0.000121836     2000
   2360000   95.39515      -926.69482      0             -770.84595     -2.9503779    
SHAKE stats (type/ave/delta/count) on step 2370000
Bond:   1   1         1.36519e-06     4000
Angle:  1   109.47    0.000117418     2000
   2370000   94.528113     -932.56011      0             -778.12774     -5.0320442    
SHAKE stats (type/ave/delta/count) on step 2380000
Bond:   1   1         1.34681e-06     4000
Angle:  1   109.47    9.12958e-05     2000
   2380000   96.445011     -931.49981      0             -773.93577      0.20594997   
SHAKE stats (type/ave/delta/count) on step 2390000
Bond:   1   1         1.2097e-06      4000
Angle:  1   109.47    8.98897e-05     2000
   2390000   95.026042     -927.77841      0             -772.53256     -3.4707964    
SHAKE stats (type/ave/delta/count) on step 2400000
Bond:   1   1         1.26317e-06     4000
Angle:  1   109.47    9.4173e-05      2000
   2400000   94.40774      -926.47866      0             -772.24295     -10.310733    
SHAKE stats (type/ave/delta/count) on step 2410000
Bond:   1   1         1.17567e-06     4000
Angle:  1   109.47    9.75765e-05     2000
   2410000   94.425186     -924.58498      0             -770.32076     -5.8258828    
SHAKE stats (type/ave/delta/count) on step 2420000
Bond:   1   1         1.18168e-06     4000
Angle:  1   109.47    0.000105685     2000
   2420000   94.139058     -933.84575      0             -780.04898     -1.1187022    
SHAKE stats (type/ave/delta/count) on step 2430000
Bond:   1   1         1.42397e-06     4000
Angle:  1   109.47    0.000118588     2000
   2430000   94.489409     -929.9354       0             -775.56626     -0.74453482   
SHAKE stats (type/ave/delta/count) on step 2440000
Bond:   1   1         1.10224e-06     4000
Angle:  1   109.47    0.000106381     2000
   2440000   95.829682     -922.16695      0             -765.60818     -12.508246    
SHAKE stats (type/ave/delta/count) on step 2450000
Bond:   1   1         1.25467e-06     4000
Angle:  1   109.47    9.2632e-05      2000
   2450000   95.329973     -920.42104      0             -764.67866     -3.8231439    
SHAKE stats (type/ave/delta/count) on step 2460000
Bond:   1   1         1.20249e-06     4000
Angle:  1   109.47    0.000103243     2000
   2460000   96.108073     -930.10911      0             -773.09553     -12.630056    
SHAKE stats (type/ave/delta/count) on step 2470000
Bond:   1   1         1.34123e-06     4000
Angle:  1   109.47    9.35855e-05     2000
   2470000   97.642394     -927.78317      0             -768.26294     -11.097084    
SHAKE stats (type/ave/delta/count) on step 2480000
Bond:   1   1         1.01001e-06     4000
Angle:  1   109.47    9.54316e-05     2000
   2480000   95.924002     -930.51472      0             -773.80186     -2.4077801    
SHAKE stats (type/ave/delta/count) on step 2490000
Bond:   1   1         1.00679e-06     4000
Angle:  1   109.47    9.85108e-05     2000
   2490000   93.540284     -928.26007      0             -775.44153     -7.555976     
SHAKE stats (type/ave/delta/count) on step 2500000
Bond:   1   1         1.18243e-06     4000
Angle:  1   109.47    0.000109228     2000
   2500000   96.587242     -926.31634      0             -768.51993     -5.8863921    
SHAKE stats (type/ave/delta/count) on step 2510000
Bond:   1   1         1.61324e-06     4000
Angle:  1   109.47    0.000126749     2000
   2510000   95.877949     -925.27657      0             -768.63894     -0.18644613   
SHAKE stats (type/ave/delta/count) on step 2520000
Bond:   1   1         1.43605e-06     4000
Angle:  1   109.47    0.000117533     2000
   2520000   96.041696     -932.0328       0             -775.12766     -0.29615312   
SHAKE stats (type/ave/delta/count) on step 2530000
Bond:   1   1         1.36296e-06     4000
Angle:  1   109.47    0.00011596      2000
   2530000   95.158249     -926.84871      0             -771.38687     -5.1102266    
SHAKE stats (type/ave/delta/count) on step 2540000
Bond:   1   1         1.7833e-06      4000
Angle:  1   109.47    0.000101965     2000
   2540000   95.906049     -927.08653      0             -770.403       -8.0448254    
SHAKE stats (type/ave/delta/count) on step 2550000
Bond:   1   1         1.29219e-06     4000
Angle:  1   109.47    0.000131185     2000
   2550000   94.437384     -933.79524      0             -779.51109     -8.6585133    
SHAKE stats (type/ave/delta/count) on step 2560000
Bond:   1   1         1.29141e-06     4000
Angle:  1   109.47    9.66349e-05     2000
   2560000   93.654418     -926.82208      0             -773.81707     -7.6482125    
SHAKE stats (type/ave/delta/count) on step 2570000
Bond:   1   1         1.35902e-06     4000
Angle:  1   109.47    0.000109397     2000
   2570000   95.184938     -927.74056      0             -772.23512     -1.1423042    
SHAKE stats (type/ave/delta/count) on step 2580000
Bond:   1   1         1.64345e-06     4000
Angle:  1   109.47    0.000108892     2000
   2580000   94.717067     -932.24916      0             -777.50809     -7.1826765    
SHAKE stats (type/ave/delta/count) on step 2590000
Bond:   1   1         1.65441e-06     4000
Angle:  1   109.47    0.000123648     2000
   2590000   95.655971     -927.7406       0             -771.46562     -11.542934    
SHAKE stats (type/ave/delta/count) on step 2600000
Bond:   1   1         1.56619e-06     4000
Angle:  1   109.47    9.813e-05       2000
   2600000   93.150855     -929.78346      0             -777.60115     -13.156264    
SHAKE stats (type/ave/delta/count) on step 2610000
Bond:   1   1         1.46025e-06     4000
Angle:  1   109.47    8.86306e-05     2000
   2610000   94.350091     -931.36444      0             -777.2229      -8.033415     
SHAKE stats (type/ave/delta/count) on step 2620000
Bond:   1   1         1.38329e-06     4000
Angle:  1   109.47    0.00010154      2000
   2620000   96.045104     -930.46753      0             -773.55683     -7.5718701    
SHAKE stats (type/ave/delta/count) on step 2630000
Bond:   1   1         1.10787e-06     4000
Angle:  1   109.47    0.000104532     2000
   2630000   96.124219     -929.42714      0             -772.38718     -14.303333    
SHAKE stats (type/ave/delta/count) on step 2640000
Bond:   1   1         1.18263e-06     4000
Angle:  1   109.47    8.95353e-05     2000
   2640000   94.489437     -929.9021       0             -775.53291     -9.8414843    
SHAKE stats (type/ave/delta/count) on step 2650000
Bond:   1   1         1.14393e-06     4000
Angle:  1   109.47    9.60696e-05     2000
   2650000   93.447877     -931.2659       0             -778.59833     -8.1186281    
SHAKE stats (type/ave/delta/count) on step 2660000
Bond:   1   1         1.60947e-06     4000
Angle:  1   109.47    0.000109164     2000
   2660000   94.456884     -924.85311      0             -770.5371      -2.2374952    
SHAKE stats (type/ave/delta/count) on step 2670000
Bond:   1   1         1.26237e-06     4000
Angle:  1   109.47    9.70163e-05     2000
   2670000   94.315414     -922.45849      0             -768.37361     -13.617403    
SHAKE stats (type/ave/delta/count) on step 2680000
Bond:   1   1         1.26691e-06     4000
Angle:  1   109.47    9.56162e-05     2000
   2680000   93.35534      -932.08749      0             -779.5711       1.4292105    
SHAKE stats (type/ave/delta/count) on step 2690000
Bond:   1   1         1.35859e-06     4000
Angle:  1   109.47    0.000130064     2000
   2690000   94.027743     -924.80307      0             -771.18816     -12.882408    
SHAKE stats (type/ave/delta/count) on step 2700000
Bond:   1   1         1.73035e-06     4000
Angle:  1   109.47    0.000127197     2000
   2700000   94.781382     -931.46114      0             -776.615       -4.5495622    
SHAKE stats (type/ave/delta/count) on step 2710000
Bond:   1   1         1.32087e-06     4000
Angle:  1   109.47    0.000100455     2000
   2710000   97.453897     -929.88635      0             -770.67407     -13.460077    
SHAKE stats (type/ave/delta/count) on step 2720000
Bond:   1   1         1.03986e-06     4000
Angle:  1   109.47    0.000103583     2000
   2720000   94.029861     -930.28657      0             -776.6682       1.0865641    
SHAKE stats (type/ave/delta/count) on step 2730000
Bond:   1   1         1.27438e-06     4000
Angle:  1   109.47    9.68062e-05     2000
   2730000   96.088374     -931.28003      0             -774.29863     -4.711148     
SHAKE stats (type/ave/delta/count) on step 2740000
Bond:   1   1         1.67572e-06     4000
Angle:  1   109.47    0.000126604     2000
   2740000   96.775577     -928.65022      0             -770.54612     -6.6358813    
SHAKE stats (type/ave/delta/count) on step 2750000
Bond:   1   1         1.28607e-06     4000
Angle:  1   109.47    9.79296e-05     2000
   2750000   94.669244     -924.17469      0             -769.51175     -8.3454387    
SHAKE stats (type/ave/delta/count) on step 2760000
Bond:   1   1         1.49371e-06     4000
Angle:  1   109.47    0.000107106     2000
   2760000   94.937955     -928.35634      0             -773.2544      -10.089998    
SHAKE stats (type/ave/delta/count) on step 2770000
Bond:   1   1         1.20888e-06     4000
Angle:  1   109.47    0.000103281     2000
   2770000   95.909787     -926.8763       0             -770.18667     -12.493237    
SHAKE stats (type/ave/delta/count) on step 2780000
Bond:   1   1         1.39142e-06     4000
Angle:  1   109.47    9.32616e-05     2000
   2780000   95.071433     -929.736        0             -774.41599     -4.5262449    
SHAKE stats (type/ave/delta/count) on step 2790000
Bond:   1   1         1.62997e-06     4000
Angle:  1   109.47    0.000126505     2000
   2790000   94.938139     -928.24604      0             -773.1438      -11.091734    
SHAKE stats (type/ave/delta/count) on step 2800000
Bond:   1   1         1.62855e-06     4000
Angle:  1   109.47    0.000107927     2000
   2800000   95.587087     -925.4024       0             -769.23996     -12.890031    
SHAKE stats (type/ave/delta/count) on step 2810000
Bond:   1   1         1.16588e-06     4000
Angle:  1   109.47    9.70745e-05     2000
   2810000   95.893777     -926.27934      0             -769.61586     -19.495617    
SHAKE stats (type/ave/delta/count) on step 2820000
Bond:   1   1         1.11797e-06     4000
Angle:  1   109.47    9.98548e-05     2000
   2820000   94.830506     -924.25614      0             -769.32975     -8.8984922    
SHAKE stats (type/ave/delta/count) on step 2830000
Bond:   1   1         1.14469e-06     4000
Angle:  1   109.47    0.000109257     2000
   2830000   92.879256     -927.6895       0             -775.9509      -7.6448478    
SHAKE stats (type/ave/delta/count) on step 2840000
Bond:   1   1         1.24036e-06     4000
Angle:  1   109.47    9.95519e-05     2000
   2840000   94.678561     -924.0083       0             -769.33014     -3.2746502    
SHAKE stats (type/ave/delta/count) on step 2850000
Bond:   1   1         1.17037e-06     4000
Angle:  1   109.47    8.78925e-05     2000
   2850000   95.839107     -928.13192      0             -771.55776     -1.5703398    
SHAKE stats (type/ave/delta/count) on step 2860000
Bond:   1   1         1.35719e-06     4000
Angle:  1   109.47    0.000101349     2000
   2860000   94.751518     -929.35279      0             -774.55544     -6.7497763    
SHAKE stats (type/ave/delta/count) on step 2870000
Bond:   1   1         1.28275e-06     4000
Angle:  1   109.47    0.000100474     2000
   2870000   95.855203     -926.25737      0             -769.6569      -2.2739377    
SHAKE stats (type/ave/delta/count) on step 2880000
Bond:   1   1         1.31282e-06     4000
Angle:  1   109.47    0.000100518     2000
   2880000   94.542261     -927.49337      0             -773.03788     -7.7659352    
SHAKE stats (type/ave/delta/count) on step 2890000
Bond:   1   1         1.12945e-06     4000
Angle:  1   109.47    9.39066e-05     2000
   2890000   95.142447     -929.00798      0             -773.57196      4.1445321    
SHAKE stats (type/ave/delta/count) on step 2900000
Bond:   1   1         1.16749e-06     4000
Angle:  1   109.47    0.000104806     2000
   2900000   96.729002     -929.53328      0             -771.50528     -7.0599189    
SHAKE stats (type/ave/delta/count) on step 2910000
Bond:   1   1         1.73813e-06     4000
Angle:  1   109.47    0.000127617     2000
   2910000   96.237214     -932.98617      0             -775.76161     -9.6388284    
SHAKE stats (type/ave/delta/count) on step 2920000
Bond:   1   1         1.50587e-06     4000
Angle:  1   109.47    0.00010929      2000
   2920000   95.263948     -924.55971      0             -768.92519     -5.3162241    
SHAKE stats (type/ave/delta/count) on step 2930000
Bond:   1   1         1.47494e-06     4000
Angle:  1   109.47    0.000124846     2000
   2930000   95.185364     -936.52143      0             -781.0153      -0.91093433   
SHAKE stats (type/ave/delta/count) on step 2940000
Bond:   1   1         1.27094e-06     4000
Angle:  1   109.47    0.000110629     2000
   2940000   93.848874     -931.44908      0             -778.12639     -12.652418    
SHAKE stats (type/ave/delta/count) on step 2950000
Bond:   1   1         1.05678e-06     4000
Angle:  1   109.47    9.97847e-05     2000
   2950000   95.109951     -931.91768      0             -776.53475     -4.3042933    
SHAKE stats (type/ave/delta/count) on step 2960000
Bond:   1   1         1.18348e-06     4000
Angle:  1   109.47    0.000100211     2000
   2960000   94.941643     -926.93326      0             -771.8253      -9.6072784    
SHAKE stats (type/ave/delta/count) on step 2970000
Bond:   1   1         1.6566e-06      4000
Angle:  1   109.47    0.000105449     2000
   2970000   96.048747     -925.76828      0             -768.85162      3.606059     
SHAKE stats (type/ave/delta/count) on step 2980000
Bond:   1   1         2.00323e-06     4000
Angle:  1   109.47    0.000135923     2000
   2980000   94.701648     -932.78629      0             -778.07041     -6.7622905    
SHAKE stats (type/ave/delta/count) on step 2990000
Bond:   1   1         1.52975e-06     4000
Angle:  1   109.47    9.58966e-05     2000
   2990000   94.7493       -927.12722      0             -772.33349     -1.6272713    
SHAKE stats (type/ave/delta/count) on step 3000000
Bond:   1   1         1.15569e-06     4000
Angle:  1   109.47    0.000100857     2000
   3000000   95.323111     -930.01094      0             -774.27977     -8.3468904    
SHAKE stats (type/ave/delta/count) on step 3010000
Bond:   1   1         1.78037e-06     4000
Angle:  1   109.47    0.000120974     2000
   3010000   96.455546     -927.23611      0             -769.65485     -10.884249    
SHAKE stats (type/ave/delta/count) on step 3020000
Bond:   1   1         1.18492e-06     4000
Angle:  1   109.47    9.79213e-05     2000
   3020000   95.34348      -930.96366      0             -775.19921     -7.9204223    
SHAKE stats (type/ave/delta/count) on step 3030000
Bond:   1   1         1.30918e-06     4000
Angle:  1   109.47    9.60923e-05     2000
   3030000   94.635724     -923.63274      0             -769.02456     -16.971006    
SHAKE stats (type/ave/delta/count) on step 3040000
Bond:   1   1         1.2715e-06      4000
Angle:  1   109.47    8.75733e-05     2000
   3040000   97.237426     -929.37648      0             -770.51785      2.9358851    
SHAKE stats (type/ave/delta/count) on step 3050000
Bond:   1   1         1.62455e-06     4000
Angle:  1   109.47    0.000108968     2000
   3050000   95.903094     -924.9791       0             -768.3004      -4.9603694    
SHAKE stats (type/ave/delta/count) on step 3060000
Bond:   1   1         1.32931e-06     4000
Angle:  1   109.47    9.06935e-05     2000
   3060000   95.472381     -932.56471      0             -776.58967     -9.8225095    
SHAKE stats (type/ave/delta/count) on step 3070000
Bond:   1   1         1.28517e-06     4000
Angle:  1   109.47    8.92586e-05     2000
   3070000   97.222573     -934.37531      0             -775.54095     -3.9761923    
SHAKE stats (type/ave/delta/count) on step 3080000
Bond:   1   1         1.33586e-06     4000
Angle:  1   109.47    9.99686e-05     2000
   3080000   94.168514     -922.22857      0             -768.38368     -0.510253     
SHAKE stats (type/ave/delta/count) on step 3090000
Bond:   1   1         1.21396e-06     4000
Angle:  1   109.47    0.000101838     2000
   3090000   92.958474     -926.90054      0             -775.03252     -9.7719457    
SHAKE stats (type/ave/delta/count) on step 3100000
Bond:   1   1         1.32112e-06     4000
Angle:  1   109.47    9.92575e-05     2000
   3100000   96.245739     -927.9051       0             -770.66661      5.9347855    
SHAKE stats (type/ave/delta/count) on step 3110000
Bond:   1   1         1.22592e-06     4000
Angle:  1   109.47    0.000114903     2000
   3110000   93.294457     -933.46202      0             -781.0451      -8.9378693    
SHAKE stats (type/ave/delta/count) on step 3120000
Bond:   1   1         1.20229e-06     4000
Angle:  1   109.47    9.72687e-05     2000
   3120000   94.662185     -929.60957      0             -774.95816     -11.350865    
SHAKE stats (type/ave/delta/count) on step 3130000
Bond:   1   1         1.35604e-06     4000
Angle:  1   109.47    0.000126467     2000
   3130000   93.966652     -933.87256      0             -780.35746     -11.41115     
SHAKE stats (type/ave/delta/count) on step 3140000
Bond:   1   1         1.24461e-06     4000
Angle:  1   109.47    9.92875e-05     2000
   3140000   93.775727     -929.74935      0             -776.54616     -9.3628073    
SHAKE stats (type/ave/delta/count) on step 3150000
Bond:   1   1         1.60312e-06     4000
Angle:  1   109.47    0.000106716     2000
   3150000   95.355867     -927.28315      0             -771.49846     -8.6225885    
SHAKE stats (type/ave/delta/count) on step 3160000
Bond:   1   1         1.24454e-06     4000
Angle:  1   109.47    9.17298e-05     2000
   3160000   94.666344     -929.12693      0             -774.46873     -10.960712    
SHAKE stats (type/ave/delta/count) on step 3170000
Bond:   1   1         1.1415e-06      4000
Angle:  1   109.47    0.000100994     2000
   3170000   95.614624     -925.44092      0             -769.23349     -10.318422    
SHAKE stats (type/ave/delta/count) on step 3180000
Bond:   1   1         1.14496e-06     4000
Angle:  1   109.47    0.000113472     2000
   3180000   95.634159     -936.07404      0             -779.8347      -6.6398842    
SHAKE stats (type/ave/delta/count) on step 3190000
Bond:   1   1         1.40121e-06     4000
Angle:  1   109.47    0.000115396     2000
   3190000   95.202966     -932.5106       0             -776.97571      0.68812668   
SHAKE stats (type/ave/delta/count) on step 3200000
Bond:   1   1         1.49028e-06     4000
Angle:  1   109.47    0.000120733     2000
   3200000   94.994734     -928.82007      0             -773.62537     -6.6183912    
SHAKE stats (type/ave/delta/count) on step 3210000
Bond:   1   1         1.78714e-06     4000
Angle:  1   109.47    0.000116482     2000
   3210000   96.822037     -927.27208      0             -769.09208     -2.032305     
SHAKE stats (type/ave/delta/count) on step 3220000
Bond:   1   1         1.21996e-06     4000
Angle:  1   109.47    9.55675e-05     2000
   3220000   95.145141     -924.43142      0             -768.991       -14.129347    
SHAKE stats (type/ave/delta/count) on step 3230000
Bond:   1   1         1.40248e-06     4000
Angle:  1   109.47    9.98253e-05     2000
   3230000   93.905252     -928.27919      0             -774.8644      -5.50705      
SHAKE stats (type/ave/delta/count) on step 3240000
Bond:   1   1         1.7672e-06      4000
Angle:  1   109.47    0.000127815     2000
   3240000   97.008738     -927.35067      0             -768.86566     -3.8948037    
SHAKE stats (type/ave/delta/count) on step 3250000
Bond:   1   1         1.28965e-06     4000
Angle:  1   109.47    9.16536e-05     2000
   3250000   93.930242     -922.99477      0             -769.53915     -13.11856     
SHAKE stats (type/ave/delta/count) on step 3260000
Bond:   1   1         1.35079e-06     4000
Angle:  1   109.47    0.000116597     2000
   3260000   96.239333     -927.46163      0             -770.2336      -5.6239706    
SHAKE stats (type/ave/delta/count) on step 3270000
Bond:   1   1         1.22372e-06     4000
Angle:  1   109.47    0.000105317     2000
   3270000   95.472552     -932.46431      0             -776.48899     -19.939983    
SHAKE stats (type/ave/delta/count) on step 3280000
Bond:   1   1         1.20249e-06     4000
Angle:  1   109.47    9.10801e-05     2000
   3280000   95.187879     -927.84729      0             -772.33704     -7.8109779    
SHAKE stats (type/ave/delta/count) on step 3290000
Bond:   1   1         1.0974e-06      4000
Angle:  1   109.47    9.76647e-05     2000
   3290000   94.403691     -928.85622      0             -774.62712     -0.77069373   
SHAKE stats (type/ave/delta/count) on step 3300000
Bond:   1   1         1.10722e-06     4000
Angle:  1   109.47    9.55765e-05     2000
   3300000   94.316086     -925.78933      0             -771.70335     -12.591442    
SHAKE stats (type/ave/delta/count) on step 3310000
Bond:   1   1         1.23326e-06     4000
Angle:  1   109.47    9.26584e-05     2000
   3310000   96.608389     -928.38336      0             -770.5524      -3.978343     
SHAKE stats (type/ave/delta/count) on step 3320000
Bond:   1   1         1.29053e-06     4000
Angle:  1   109.47    8.99879e-05     2000
   3320000   93.597251     -924.92377      0             -772.01217      0.57926205   
SHAKE stats (type/ave/delta/count) on step 3330000
Bond:   1   1         1.334e-06       4000
Angle:  1   109.47    9.67951e-05     2000
   3330000   95.823354     -927.31665      0             -770.76822     -6.1901636    
SHAKE stats (type/ave/delta/count) on step 3340000
Bond:   1   1         1.1252e-06      4000
Angle:  1   109.47    9.69707e-05     2000
   3340000   96.109494     -927.55093      0             -770.53503     -4.4490003    
SHAKE stats (type/ave/delta/count) on step 3350000
Bond:   1   1         1.46797e-06     4000
Angle:  1   109.47    0.000115563     2000
   3350000   94.132469     -924.40242      0             -770.61642     -4.8374999    
SHAKE stats (type/ave/delta/count) on step 3360000
Bond:   1   1         1.22744e-06     4000
Angle:  1   109.47    9.85385e-05     2000
   3360000   93.863342     -924.08716      0             -770.74084     -7.4525143    
SHAKE stats (type/ave/delta/count) on step 3370000
Bond:   1   1         1.06704e-06     4000
Angle:  1   109.47    9.31344e-05     2000
   3370000   95.3343       -928.99997      0             -773.25051     -1.1602234    
SHAKE stats (type/ave/delta/count) on step 3380000
Bond:   1   1         1.14151e-06     4000
Angle:  1   109.47    9.06233e-05     2000
   3380000   93.732106     -930.49473      0             -777.36281     -14.5114      
SHAKE stats (type/ave/delta/count) on step 3390000
Bond:   1   1         1.27034e-06     4000
Angle:  1   109.47    8.8761e-05      2000
   3390000   92.408264     -924.24004      0             -773.2709      -14.463819    
SHAKE stats (type/ave/delta/count) on step 3400000
Bond:   1   1         1.60898e-06     4000
Angle:  1   109.47    0.000132022     2000
   3400000   94.930923     -929.52277      0             -774.43232     -9.9958538    
SHAKE stats (type/ave/delta/count) on step 3410000
Bond:   1   1         1.18306e-06     4000
Angle:  1   109.47    0.000100603     2000
   3410000   93.137889     -928.31681      0             -776.15567     -10.623009    
SHAKE stats (type/ave/delta/count) on step 3420000
Bond:   1   1         1.21814e-06     4000
Angle:  1   109.47    0.000100943     2000
   3420000   93.519998     -926.17966      0             -773.39426     -4.510328     
SHAKE stats (type/ave/delta/count) on step 3430000
Bond:   1   1         1.29711e-06     4000
Angle:  1   109.47    0.000113301     2000
   3430000   94.205868     -931.17298      0             -777.26707     -7.3502203    
SHAKE stats (type/ave/delta/count) on step 3440000
Bond:   1   1         1.03582e-06     4000
Angle:  1   109.47    8.85002e-05     2000
   3440000   94.423904     -922.53615      0             -768.27403     -7.4926684    
SHAKE stats (type/ave/delta/count) on step 3450000
Bond:   1   1         1.44148e-06     4000
Angle:  1   109.47    0.000100247     2000
   3450000   97.758731     -925.51687      0             -765.80658     -10.314964    
SHAKE stats (type/ave/delta/count) on step 3460000
Bond:   1   1         1.60044e-06     4000
Angle:  1   109.47    0.000124289     2000
   3460000   95.497467     -918.15796      0             -762.14194     -6.1613292    
SHAKE stats (type/ave/delta/count) on step 3470000
Bond:   1   1         1.74692e-06     4000
Angle:  1   109.47    0.000122291     2000
   3470000   94.317401     -931.67635      0             -777.58822     -13.152263    
SHAKE stats (type/ave/delta/count) on step 3480000
Bond:   1   1         1.26556e-06     4000
Angle:  1   109.47    9.32731e-05     2000
   3480000   94.098352     -930.43901      0             -776.70874     -6.1416569    
SHAKE stats (type/ave/delta/count) on step 3490000
Bond:   1   1         1.44223e-06     4000
Angle:  1   109.47    0.000127579     2000
   3490000   94.369066     -922.45075      0             -768.27822     -7.1671964    
SHAKE stats (type/ave/delta/count) on step 3500000
Bond:   1   1         1.40474e-06     4000
Angle:  1   109.47    9.99856e-05     2000
   3500000   94.227736     -927.09003      0             -773.14839     -3.9546215    
SHAKE stats (type/ave/delta/count) on step 3510000
Bond:   1   1         1.18506e-06     4000
Angle:  1   109.47    9.20063e-05     2000
   3510000   95.922405     -927.67422      0             -770.96396     -2.1858958    
SHAKE stats (type/ave/delta/count) on step 3520000
Bond:   1   1         1.25272e-06     4000
Angle:  1   109.47    9.73504e-05     2000
   3520000   95.598872     -925.58411      0             -769.40242     -9.6179874    
SHAKE stats (type/ave/delta/count) on step 3530000
Bond:   1   1         1.45615e-06     4000
Angle:  1   109.47    0.000110525     2000
   3530000   94.770934     -935.47922      0             -780.65015     -12.565391    
SHAKE stats (type/ave/delta/count) on step 3540000
Bond:   1   1         1.52828e-06     4000
Angle:  1   109.47    0.000116583     2000
   3540000   92.98096      -927.93271      0             -776.02795      2.7426992    
SHAKE stats (type/ave/delta/count) on step 3550000
Bond:   1   1         1.15269e-06     4000
Angle:  1   109.47    9.24235e-05     2000
   3550000   93.768728     -926.09179      0             -772.90004      2.5339906    
SHAKE stats (type/ave/delta/count) on step 3560000
Bond:   1   1         1.50492e-06     4000
Angle:  1   109.47    0.000126907     2000
   3560000   96.438325     -923.17089      0             -765.61777     -12.297453    
SHAKE stats (type/ave/delta/count) on step 3570000
Bond:   1   1         1.5999e-06      4000
Angle:  1   109.47    0.000112894     2000
   3570000   96.150848     -924.21496      0             -767.13149     -4.9609127    
SHAKE stats (type/ave/delta/count) on step 3580000
Bond:   1   1         1.02338e-06     4000
Angle:  1   109.47    9.59767e-05     2000
   3580000   93.643358     -916.00683      0             -763.0199      -11.074709    
SHAKE stats (type/ave/delta/count) on step 3590000
Bond:   1   1         1.30718e-06     4000
Angle:  1   109.47    0.000106247     2000
   3590000   93.836724     -930.63028      0             -777.32744     -5.5183542    
SHAKE stats (type/ave/delta/count) on step 3600000
Bond:   1   1         1.41548e-06     4000
Angle:  1   109.47    9.12653e-05     2000
   3600000   94.426191     -921.66873      0             -767.40287     -12.956681    
SHAKE stats (type/ave/delta/count) on step 3610000
Bond:   1   1         1.14568e-06     4000
Angle:  1   109.47    0.000102566     2000
   3610000   93.99919      -925.19611      0             -771.62785     -5.1879063    
SHAKE stats (type/ave/delta/count) on step 3620000
Bond:   1   1         1.11165e-06     4000
Angle:  1   109.47    9.57966e-05     2000
   3620000   94.761786     -923.11818      0             -768.30405     -1.6884665    
SHAKE stats (type/ave/delta/count) on step 3630000
Bond:   1   1         1.36639e-06     4000
Angle:  1   109.47    9.54606e-05     2000
   3630000   95.745341     -928.00114      0             -771.58016     -5.6972855    
SHAKE stats (type/ave/delta/count) on step 3640000
Bond:   1   1         1.30817e-06     4000
Angle:  1   109.47    9.3276e-05      2000
   3640000   94.184355     -926.89306      0             -773.02229     -9.6251257    
SHAKE stats (type/ave/delta/count) on step 3650000
Bond:   1   1         1.08759e-06     4000
Angle:  1   109.47    9.00927e-05     2000
   3650000   93.624378     -928.21257      0             -775.25665     -6.4355828    
SHAKE stats (type/ave/delta/count) on step 3660000
Bond:   1   1         1.60765e-06     4000
Angle:  1   109.47    0.000133859     2000
   3660000   94.94239      -929.93261      0             -774.82342     -10.462285    
SHAKE stats (type/ave/delta/count) on step 3670000
Bond:   1   1         1.39656e-06     4000
Angle:  1   109.47    9.74904e-05     2000
   3670000   94.051549     -928.09154      0             -774.43774     -15.422095    
SHAKE stats (type/ave/delta/count) on step 3680000
Bond:   1   1         1.31223e-06     4000
Angle:  1   109.47    0.000100898     2000
   3680000   93.001887     -930.85306      0             -778.91411     -8.0650386    
SHAKE stats (type/ave/delta/count) on step 3690000
Bond:   1   1         1.19026e-06     4000
Angle:  1   109.47    8.65895e-05     2000
   3690000   94.587996     -924.84888      0             -770.31868     -2.3012186    
SHAKE stats (type/ave/delta/count) on step 3700000
Bond:   1   1         1.39673e-06     4000
Angle:  1   109.47    9.75628e-05     2000
   3700000   96.685685     -928.13269      0             -770.17545     -4.3857291    
SHAKE stats (type/ave/delta/count) on step 3710000
Bond:   1   1         1.12734e-06     4000
Angle:  1   109.47    9.86034e-05     2000
   3710000   96.295602     -925.28511      0             -767.96516     -13.730153    
SHAKE stats (type/ave/delta/count) on step 3720000
Bond:   1   1         1.05414e-06     4000
Angle:  1   109.47    8.85658e-05     2000
   3720000   95.145259     -926.12888      0             -770.68826     -11.709105    
SHAKE stats (type/ave/delta/count) on step 3730000
Bond:   1   1         1.27379e-06     4000
Angle:  1   109.47    0.000100539     2000
   3730000   96.307066     -928.43222      0             -771.09354     -12.315158    
SHAKE stats (type/ave/delta/count) on step 3740000
Bond:   1   1         1.14608e-06     4000
Angle:  1   109.47    0.000107055     2000
   3740000   93.82489      -931.07837      0             -777.79487     -5.2587933    
SHAKE stats (type/ave/delta/count) on step 3750000
Bond:   1   1         1.15387e-06     4000
Angle:  1   109.47    0.000104159     2000
   3750000   93.129299     -929.27007      0             -777.12296     -3.262047     
SHAKE stats (type/ave/delta/count) on step 3760000
Bond:   1   1         1.13996e-06     4000
Angle:  1   109.47    9.35126e-05     2000
   3760000   95.037072     -931.64236      0             -776.37849     -2.5271271    
SHAKE stats (type/ave/delta/count) on step 3770000
Bond:   1   1         1.148e-06       4000
Angle:  1   109.47    0.000102345     2000
   3770000   93.780702     -928.33643      0             -775.12512     -3.8016031    
SHAKE stats (type/ave/delta/count) on step 3780000
Bond:   1   1         1.31583e-06     4000
Angle:  1   109.47    0.000108831     2000
   3780000   96.350491     -932.58818      0             -775.17855     -3.9910384    
SHAKE stats (type/ave/delta/count) on step 3790000
Bond:   1   1         1.2921e-06      4000
Angle:  1   109.47    9.28997e-05     2000
   3790000   94.461114     -927.25746      0             -772.93455     -8.0253194    
SHAKE stats (type/ave/delta/count) on step 3800000
Bond:   1   1         1.0546e-06      4000
Angle:  1   109.47    9.53524e-05     2000
   3800000   95.495271     -922.28318      0             -766.27074     -5.0717871    
SHAKE stats (type/ave/delta/count) on step 3810000
Bond:   1   1         1.01723e-06     4000
Angle:  1   109.47    8.63759e-05     2000
   3810000   96.337023     -924.72887      0             -767.34125     -9.1135992    
SHAKE stats (type/ave/delta/count) on step 3820000
Bond:   1   1         1.33139e-06     4000
Angle:  1   109.47    0.000106387     2000
   3820000   95.041758     -925.15907      0             -769.88754     -4.0125338    
SHAKE stats (type/ave/delta/count) on step 3830000
Bond:   1   1         1.3181e-06      4000
Angle:  1   109.47    0.000103746     2000
   3830000   96.933587     -932.52114      0             -774.1589      -4.2911964    
SHAKE stats (type/ave/delta/count) on step 3840000
Bond:   1   1         1.18918e-06     4000
Angle:  1   109.47    9.57007e-05     2000
   3840000   93.820066     -924.91447      0             -771.63885     -3.5572684    
SHAKE stats (type/ave/delta/count) on step 3850000
Bond:   1   1         1.33179e-06     4000
Angle:  1   109.47    9.80185e-05     2000
   3850000   95.934738     -920.16333      0             -763.43293     -7.2277818    
SHAKE stats (type/ave/delta/count) on step 3860000
Bond:   1   1         1.33993e-06     4000
Angle:  1   109.47    9.54385e-05     2000
   3860000   96.157357     -927.59205      0             -770.49795     -6.8004375    
SHAKE stats (type/ave/delta/count) on step 3870000
Bond:   1   1         1.26815e-06     4000
Angle:  1   109.47    9.88578e-05     2000
   3870000   96.148744     -927.6633       0             -770.58327      3.2376204    
SHAKE stats (type/ave/delta/count) on step 3880000
Bond:   1   1         1.27236e-06     4000
Angle:  1   109.47    0.000106128     2000
   3880000   95.171397     -922.43685      0             -766.95353     -9.9443328    
SHAKE stats (type/ave/delta/count) on step 3890000
Bond:   1   1         1.29662e-06     4000
Angle:  1   109.47    0.000117869     2000
   3890000   94.744457     -926.02484      0             -771.23902     -11.370345    
SHAKE stats (type/ave/delta/count) on step 3900000
Bond:   1   1         1.31875e-06     4000
Angle:  1   109.47    9.12632e-05     2000
   3900000   96.776552     -924.11614      0             -766.01045     -11.765762    
SHAKE stats (type/ave/delta/count) on step 3910000
Bond:   1   1         1.19566e-06     4000
Angle:  1   109.47    9.62885e-05     2000
   3910000   96.451825     -930.31556      0             -772.74038     -13.245819    
SHAKE stats (type/ave/delta/count) on step 3920000
Bond:   1   1         1.29875e-06     4000
Angle:  1   109.47    0.000114503     2000
   3920000   95.152107     -932.42119      0             -776.96939     -14.332218    
SHAKE stats (type/ave/delta/count) on step 3930000
Bond:   1   1         1.15042e-06     4000
Angle:  1   109.47    8.78667e-05     2000
   3930000   95.003619     -928.99959      0             -773.79037     -7.5280562    
SHAKE stats (type/ave/delta/count) on step 3940000
Bond:   1   1         1.37903e-06     4000
Angle:  1   109.47    0.0001142       2000
   3940000   94.53692      -922.69557      0             -768.24881     -9.47388      
SHAKE stats (type/ave/delta/count) on step 3950000
Bond:   1   1         1.35701e-06     4000
Angle:  1   109.47    0.000110893     2000
   3950000   94.624136     -927.69992      0             -773.11067     -10.090078    
SHAKE stats (type/ave/delta/count) on step 3960000
Bond:   1   1         1.47574e-06     4000
Angle:  1   109.47    0.000132285     2000
   3960000   94.037172     -928.17696      0             -774.54664     -6.6590149    
SHAKE stats (type/ave/delta/count) on step 3970000
Bond:   1   1         1.16817e-06     4000
Angle:  1   109.47    0.000117308     2000
   3970000   95.454986     -929.10113      0             -773.15451     -7.3464451    
SHAKE stats (type/ave/delta/count) on step 3980000
Bond:   1   1         1.2301e-06      4000
Angle:  1   109.47    9.97974e-05     2000
   3980000   94.675017     -927.36933      0             -772.69696     -12.693434    
SHAKE stats (type/ave/delta/count) on step 3990000
Bond:   1   1         1.6426e-06      4000
Angle:  1   109.47    9.21925e-05     2000
   3990000   92.505385     -929.01992      0             -777.89212     -11.883401    
SHAKE stats (type/ave/delta/count) on step 4000000
Bond:   1   1         1.21314e-06     4000
Angle:  1   109.47    0.00010306      2000
   4000000   96.480944     -925.50158      0             -767.87884     -9.1698784    
SHAKE stats (type/ave/delta/count) on step 4010000
Bond:   1   1         1.21854e-06     4000
Angle:  1   109.47    0.000100147     2000
   4010000   96.372073     -927.07706      0             -769.63218     -4.9203311    
SHAKE stats (type/ave/delta/count) on step 4020000
Bond:   1   1         1.24367e-06     4000
Angle:  1   109.47    9.44693e-05     2000
   4020000   95.527501     -929.71687      0             -773.65178     -3.7917675    
SHAKE stats (type/ave/delta/count) on step 4030000
Bond:   1   1         1.17338e-06     4000
Angle:  1   109.47    8.80003e-05     2000
   4030000   95.29964      -922.83602      0             -767.1432      -10.885121    
SHAKE stats (type/ave/delta/count) on step 4040000
Bond:   1   1         1.37477e-06     4000
Angle:  1   109.47    0.000103677     2000
   4040000   95.014326     -931.75181      0             -776.5251      -8.0364243    
SHAKE stats (type/ave/delta/count) on step 4050000
Bond:   1   1         1.19389e-06     4000
Angle:  1   109.47    0.000109247     2000
   4050000   93.968232     -927.6315       0             -774.11382     -3.0867119    
SHAKE stats (type/ave/delta/count) on step 4060000
Bond:   1   1         1.34942e-06     4000
Angle:  1   109.47    9.42911e-05     2000
   4060000   94.835436     -926.00792      0             -771.07347     -12.774411    
SHAKE stats (type/ave/delta/count) on step 4070000
Bond:   1   1         1.47496e-06     4000
Angle:  1   109.47    9.26572e-05     2000
   4070000   95.097007     -931.77929      0             -776.4175      -7.0549806    
SHAKE stats (type/ave/delta/count) on step 4080000
Bond:   1   1         1.05828e-06     4000
Angle:  1   109.47    9.71342e-05     2000
   4080000   94.892043     -927.26155      0             -772.23462     -4.9756081    
SHAKE stats (type/ave/delta/count) on step 4090000
Bond:   1   1         1.04851e-06     4000
Angle:  1   109.47    9.38277e-05     2000
   4090000   95.038806     -936.2613       0             -780.9946      -4.7811581    
SHAKE stats (type/ave/delta/count) on step 4100000
Bond:   1   1         1.16281e-06     4000
Angle:  1   109.47    0.000102824     2000
   4100000   95.005518     -921.78527      0             -766.57295     -9.7061575    
SHAKE stats (type/ave/delta/count) on step 4110000
Bond:   1   1         1.19897e-06     4000
Angle:  1   109.47    9.31709e-05     2000
   4110000   95.800269     -929.97824      0             -773.46753     -12.244965    
SHAKE stats (type/ave/delta/count) on step 4120000
Bond:   1   1         1.27835e-06     4000
Angle:  1   109.47    9.46041e-05     2000
   4120000   93.946075     -930.48086      0             -776.99938     -7.1940751    
SHAKE stats (type/ave/delta/count) on step 4130000
Bond:   1   1         1.22565e-06     4000
Angle:  1   109.47    8.85644e-05     2000
   4130000   93.749719     -929.12354      0             -775.96284     -4.1855411    
SHAKE stats (type/ave/delta/count) on step 4140000
Bond:   1   1         1.66711e-06     4000
Angle:  1   109.47    0.000108651     2000
   4140000   96.452132     -932.94377      0             -775.36809     -5.8813573    
SHAKE stats (type/ave/delta/count) on step 4150000
Bond:   1   1         1.10745e-06     4000
Angle:  1   109.47    0.000108541     2000
   4150000   96.030866     -924.06316      0             -767.17571     -6.8854016    
SHAKE stats (type/ave/delta/count) on step 4160000
Bond:   1   1         1.21483e-06     4000
Angle:  1   109.47    0.000111803     2000
   4160000   95.393337     -931.10782      0             -775.26192     -9.9036816    
SHAKE stats (type/ave/delta/count) on step 4170000
Bond:   1   1         1.34311e-06     4000
Angle:  1   109.47    0.000100974     2000
   4170000   96.8363       -927.25897      0             -769.05567     -13.500619    
SHAKE stats (type/ave/delta/count) on step 4180000
Bond:   1   1         1.58825e-06     4000
Angle:  1   109.47    0.000107102     2000
   4180000   95.690545     -926.1943       0             -769.86285     -8.7440471    
SHAKE stats (type/ave/delta/count) on step 4190000
Bond:   1   1         1.53705e-06     4000
Angle:  1   109.47    0.000121442     2000
   4190000   94.349031     -926.31354      0             -772.17374     -2.4002867    
SHAKE stats (type/ave/delta/count) on step 4200000
Bond:   1   1         1.33308e-06     4000
Angle:  1   109.47    0.000106079     2000
   4200000   93.414217     -928.86409      0             -776.25151     -11.808906    
SHAKE stats (type/ave/delta/count) on step 4210000
Bond:   1   1         1.57109e-06     4000
Angle:  1   109.47    0.000109134     2000
   4210000   93.363706     -933.25787      0             -780.72782     -8.9440405    
SHAKE stats (type/ave/delta/count) on step 4220000
Bond:   1   1         1.57574e-06     4000
Angle:  1   109.47    9.8407e-05      2000
   4220000   93.879813     -931.26257      0             -777.88934      1.6250206    
SHAKE stats (type/ave/delta/count) on step 4230000
Bond:   1   1         1.14159e-06     4000
Angle:  1   109.47    9.72834e-05     2000
   4230000   95.102664     -923.78095      0             -768.40993     -1.5200733    
SHAKE stats (type/ave/delta/count) on step 4240000
Bond:   1   1         1.21415e-06     4000
Angle:  1   109.47    8.96779e-05     2000
   4240000   96.477956     -926.77271      0             -769.15485     -10.838224    
SHAKE stats (type/ave/delta/count) on step 4250000
Bond:   1   1         1.42358e-06     4000
Angle:  1   109.47    0.000145732     2000
   4250000   93.261265     -929.14472      0             -776.78203     -2.7109102    
SHAKE stats (type/ave/delta/count) on step 4260000
Bond:   1   1         1.2473e-06      4000
Angle:  1   109.47    9.58233e-05     2000
   4260000   96.958427     -927.58343      0             -769.18061     -2.5877724    
SHAKE stats (type/ave/delta/count) on step 4270000
Bond:   1   1         1.20725e-06     4000
Angle:  1   109.47    9.52055e-05     2000
   4270000   95.519309     -926.38236      0             -770.33065     -9.1727612    
SHAKE stats (type/ave/delta/count) on step 4280000
Bond:   1   1         1.3125e-06      4000
Angle:  1   109.47    0.000102423     2000
   4280000   96.107349     -928.77493      0             -771.76253     -12.355069    
SHAKE stats (type/ave/delta/count) on step 4290000
Bond:   1   1         1.1247e-06      4000
Angle:  1   109.47    8.98009e-05     2000
   4290000   94.150213     -925.14432      0             -771.32933     -4.490138     
SHAKE stats (type/ave/delta/count) on step 4300000
Bond:   1   1         1.03483e-06     4000
Angle:  1   109.47    9.84905e-05     2000
   4300000   95.094085     -927.16793      0             -771.81092      0.71785378   
SHAKE stats (type/ave/delta/count) on step 4310000
Bond:   1   1         1.10295e-06     4000
Angle:  1   109.47    9.97236e-05     2000
   4310000   95.71284      -925.4208       0             -769.05292     -0.70781697   
SHAKE stats (type/ave/delta/count) on step 4320000
Bond:   1   1         1.13231e-06     4000
Angle:  1   109.47    9.86418e-05     2000
   4320000   94.765132     -926.918        0             -772.09841      1.0839393    
SHAKE stats (type/ave/delta/count) on step 4330000
Bond:   1   1         1.25844e-06     4000
Angle:  1   109.47    9.71611e-05     2000
   4330000   96.663004     -931.913        0             -773.99282     -5.2520708    
SHAKE stats (type/ave/delta/count) on step 4340000
Bond:   1   1         1.51232e-06     4000
Angle:  1   109.47    0.000113744     2000
   4340000   96.763182     -925.79527      0             -767.71142     -6.629392     
SHAKE stats (type/ave/delta/count) on step 4350000
Bond:   1   1         1.11635e-06     4000
Angle:  1   109.47    8.90231e-05     2000
   4350000   96.556071     -931.7758       0             -774.03031     -4.3244895    
SHAKE stats (type/ave/delta/count) on step 4360000
Bond:   1   1         1.23185e-06     4000
Angle:  1   109.47    8.6439e-05      2000
   4360000   95.017535     -933.23888      0             -778.00693     -10.543442    
SHAKE stats (type/ave/delta/count) on step 4370000
Bond:   1   1         1.08773e-06     4000
Angle:  1   109.47    9.32215e-05     2000
   4370000   96.254609     -931.20663      0             -773.95365     -3.7234051    
SHAKE stats (type/ave/delta/count) on step 4380000
Bond:   1   1         1.45521e-06     4000
Angle:  1   109.47    0.000124879     2000
   4380000   94.144191     -923.51877      0             -769.71362     -3.7623563    
SHAKE stats (type/ave/delta/count) on step 4390000
Bond:   1   1         1.17844e-06     4000
Angle:  1   109.47    0.000100262     2000
   4390000   95.482511     -930.9607       0             -774.96911     -5.72028      
SHAKE stats (type/ave/delta/count) on step 4400000
Bond:   1   1         1.28415e-06     4000
Angle:  1   109.47    9.72929e-05     2000
   4400000   94.56151      -927.72834      0             -773.24141     -15.291417    
SHAKE stats (type/ave/delta/count) on step 4410000
Bond:   1   1         1.13719e-06     4000
Angle:  1   109.47    9.78982e-05     2000
   4410000   94.635043     -930.58515      0             -775.97808     -2.6985089    
SHAKE stats (type/ave/delta/count) on step 4420000
Bond:   1   1         1.18185e-06     4000
Angle:  1   109.47    0.000102777     2000
   4420000   93.754113     -925.2736       0             -772.10573     -3.6770627    
SHAKE stats (type/ave/delta/count) on step 4430000
Bond:   1   1         9.93345e-07     4000
Angle:  1   109.47    9.95887e-05     2000
   4430000   92.126607     -935.92091      0             -785.41192     -7.4088015    
SHAKE stats (type/ave/delta/count) on step 4440000
Bond:   1   1         1.29543e-06     4000
Angle:  1   109.47    0.000104343     2000
   4440000   94.019676     -923.28431      0             -769.68258     -4.9431911    
SHAKE stats (type/ave/delta/count) on step 4450000
Bond:   1   1         1.54161e-06     4000
Angle:  1   109.47    9.99311e-05     2000
   4450000   96.705098     -922.8373       0             -764.84835     -5.4129783    
SHAKE stats (type/ave/delta/count) on step 4460000
Bond:   1   1         1.47868e-06     4000
Angle:  1   109.47    9.95434e-05     2000
   4460000   98.029865     -930.29616      0             -770.1429      -4.5702796    
SHAKE stats (type/ave/delta/count) on step 4470000
Bond:   1   1         1.29125e-06     4000
Angle:  1   109.47    0.000103225     2000
   4470000   96.63178      -926.03279      0             -768.16362     -8.1979872    
SHAKE stats (type/ave/delta/count) on step 4480000
Bond:   1   1         1.57106e-06     4000
Angle:  1   109.47    0.000103372     2000
   4480000   94.680729     -926.30884      0             -771.62714     -14.756804    
SHAKE stats (type/ave/delta/count) on step 4490000
Bond:   1   1         1.07419e-06     4000
Angle:  1   109.47    0.000118377     2000
   4490000   93.534415     -922.19644      0             -769.38749     -9.5629219    
SHAKE stats (type/ave/delta/count) on step 4500000
Bond:   1   1         1.28582e-06     4000
Angle:  1   109.47    9.79019e-05     2000
   4500000   93.192462     -927.36311      0             -775.11282     -2.5306478    
SHAKE stats (type/ave/delta/count) on step 4510000
Bond:   1   1         1.16905e-06     4000
Angle:  1   109.47    9.96444e-05     2000
   4510000   96.330714     -926.45248      0             -769.07517     -2.0841091    
SHAKE stats (type/ave/delta/count) on step 4520000
Bond:   1   1         1.11655e-06     4000
Angle:  1   109.47    9.85766e-05     2000
   4520000   95.86263      -932.37279      0             -775.76019     -2.3594816    
SHAKE stats (type/ave/delta/count) on step 4530000
Bond:   1   1         1.22527e-06     4000
Angle:  1   109.47    9.46339e-05     2000
   4530000   96.12716      -925.61259      0             -768.56782     -14.6184      
SHAKE stats (type/ave/delta/count) on step 4540000
Bond:   1   1         1.14075e-06     4000
Angle:  1   109.47    0.000103036     2000
   4540000   93.894369     -933.84304      0             -780.44603     -8.0330764    
SHAKE stats (type/ave/delta/count) on step 4550000
Bond:   1   1         1.27177e-06     4000
Angle:  1   109.47    0.000100397     2000
   4550000   92.593447     -927.55083      0             -776.27916      1.4402955    
SHAKE stats (type/ave/delta/count) on step 4560000
Bond:   1   1         1.27381e-06     4000
Angle:  1   109.47    0.000105023     2000
   4560000   94.314467     -929.99379      0             -775.91046     -1.5249891    
SHAKE stats (type/ave/delta/count) on step 4570000
Bond:   1   1         1.15797e-06     4000
Angle:  1   109.47    8.6967e-05      2000
   4570000   94.692926     -930.71829      0             -776.01666     -7.3671675    
SHAKE stats (type/ave/delta/count) on step 4580000
Bond:   1   1         1.32099e-06     4000
Angle:  1   109.47    0.000124059     2000
   4580000   95.876736     -926.79469      0             -770.15905     -1.748486     
SHAKE stats (type/ave/delta/count) on step 4590000
Bond:   1   1         1.33837e-06     4000
Angle:  1   109.47    8.51844e-05     2000
   4590000   94.83524      -928.09979      0             -773.16566     -3.3149001    
SHAKE stats (type/ave/delta/count) on step 4600000
Bond:   1   1         1.24014e-06     4000
Angle:  1   109.47    9.14568e-05     2000
   4600000   95.862373     -928.61622      0             -772.00404     -7.4782823    
SHAKE stats (type/ave/delta/count) on step 4610000
Bond:   1   1         1.23391e-06     4000
Angle:  1   109.47    0.000106171     2000
   4610000   97.159785     -924.11003      0             -765.37824      1.5489871    
SHAKE stats (type/ave/delta/count) on step 4620000
Bond:   1   1         1.30824e-06     4000
Angle:  1   109.47    0.000104196     2000
   4620000   95.50622      -932.40426      0             -776.37394     -7.3615531    
SHAKE stats (type/ave/delta/count) on step 4630000
Bond:   1   1         1.66634e-06     4000
Angle:  1   109.47    0.000111854     2000
   4630000   96.343612     -928.93293      0             -771.53454     -3.7579963    
SHAKE stats (type/ave/delta/count) on step 4640000
Bond:   1   1         1.27122e-06     4000
Angle:  1   109.47    9.90312e-05     2000
   4640000   97.215842     -928.95039      0             -770.12703      4.4628351    
SHAKE stats (type/ave/delta/count) on step 4650000
Bond:   1   1         1.34622e-06     4000
Angle:  1   109.47    9.83599e-05     2000
   4650000   93.768105     -927.82553      0             -774.6348       0.93055973   
SHAKE stats (type/ave/delta/count) on step 4660000
Bond:   1   1         1.21258e-06     4000
Angle:  1   109.47    9.49275e-05     2000
   4660000   94.538753     -930.73141      0             -776.28165     -9.2317287    
SHAKE stats (type/ave/delta/count) on step 4670000
Bond:   1   1         1.10279e-06     4000
Angle:  1   109.47    0.000111536     2000
   4670000   95.095269     -929.16668      0             -773.80773     -0.83899064   
SHAKE stats (type/ave/delta/count) on step 4680000
Bond:   1   1         1.10882e-06     4000
Angle:  1   109.47    8.7304e-05      2000
   4680000   93.055101     -925.75512      0             -773.72924     -3.962748     
SHAKE stats (type/ave/delta/count) on step 4690000
Bond:   1   1         1.24587e-06     4000
Angle:  1   109.47    9.7057e-05      2000
   4690000   96.602093     -927.62767      0             -769.807       -1.7587817    
SHAKE stats (type/ave/delta/count) on step 4700000
Bond:   1   1         1.6998e-06      4000
Angle:  1   109.47    0.000121558     2000
   4700000   94.303886     -931.07231      0             -777.00626     -6.3161478    
SHAKE stats (type/ave/delta/count) on step 4710000
Bond:   1   1         1.05625e-06     4000
Angle:  1   109.47    9.50647e-05     2000
   4710000   93.233227     -925.50445      0             -773.18756      1.1061169    
SHAKE stats (type/ave/delta/count) on step 4720000
Bond:   1   1         1.56353e-06     4000
Angle:  1   109.47    0.000103856     2000
   4720000   94.499101     -929.0494       0             -774.66442     -2.0947691    
SHAKE stats (type/ave/delta/count) on step 4730000
Bond:   1   1         1.84579e-06     4000
Angle:  1   109.47    0.000111253     2000
   4730000   93.881182     -926.37055      0             -772.99509     -16.032198    
SHAKE stats (type/ave/delta/count) on step 4740000
Bond:   1   1         1.11457e-06     4000
Angle:  1   109.47    0.000101169     2000
   4740000   95.41323      -924.0792       0             -768.2008      -7.2130407    
SHAKE stats (type/ave/delta/count) on step 4750000
Bond:   1   1         1.49865e-06     4000
Angle:  1   109.47    0.000124034     2000
   4750000   93.718849     -934.10706      0             -780.9968       8.5699745    
SHAKE stats (type/ave/delta/count) on step 4760000
Bond:   1   1         1.24794e-06     4000
Angle:  1   109.47    9.6956e-05      2000
   4760000   95.300299     -926.69883      0             -771.00493     -13.671748    
SHAKE stats (type/ave/delta/count) on step 4770000
Bond:   1   1         1.23821e-06     4000
Angle:  1   109.47    0.000126962     2000
   4770000   95.835364     -926.51318      0             -769.94513     -14.202       
SHAKE stats (type/ave/delta/count) on step 4780000
Bond:   1   1         1.16683e-06     4000
Angle:  1   109.47    8.95839e-05     2000
   4780000   96.52709      -928.94043      0             -771.24229     -5.5217784    
SHAKE stats (type/ave/delta/count) on step 4790000
Bond:   1   1         1.49209e-06     4000
Angle:  1   109.47    0.000103205     2000
   4790000   93.237004     -930.48558      0             -778.16252     -15.100026    
SHAKE stats (type/ave/delta/count) on step 4800000
Bond:   1   1         1.35561e-06     4000
Angle:  1   109.47    9.57391e-05     2000
   4800000   93.243223     -921.0643       0             -768.73108     -1.6823089    
SHAKE stats (type/ave/delta/count) on step 4810000
Bond:   1   1         1.23814e-06     4000
Angle:  1   109.47    0.000102291     2000
   4810000   95.277727     -924.87202      0             -769.21499     -12.817649    
SHAKE stats (type/ave/delta/count) on step 4820000
Bond:   1   1         1.1804e-06      4000
Angle:  1   109.47    8.62913e-05     2000
   4820000   94.068641     -926.47088      0             -772.78915     -1.4396244    
SHAKE stats (type/ave/delta/count) on step 4830000
Bond:   1   1         1.72437e-06     4000
Angle:  1   109.47    0.000133417     2000
   4830000   96.089454     -922.67053      0             -765.68737     -3.8524749    
SHAKE stats (type/ave/delta/count) on step 4840000
Bond:   1   1         1.23406e-06     4000
Angle:  1   109.47    8.96436e-05     2000
   4840000   94.897899     -931.67609      0             -776.63959     -14.917381    
SHAKE stats (type/ave/delta/count) on step 4850000
Bond:   1   1         1.35896e-06     4000
Angle:  1   109.47    9.05289e-05     2000
   4850000   94.974901     -923.20106      0             -768.03877     -7.1822172    
SHAKE stats (type/ave/delta/count) on step 4860000
Bond:   1   1         1.09878e-06     4000
Angle:  1   109.47    9.9838e-05      2000
   4860000   95.835725     -928.86742      0             -772.29878     -0.72790887   
SHAKE stats (type/ave/delta/count) on step 4870000
Bond:   1   1         1.24124e-06     4000
Angle:  1   109.47    0.000100704     2000
   4870000   95.4649       -928.02813      0             -772.06531     -6.9444629    
SHAKE stats (type/ave/delta/count) on step 4880000
Bond:   1   1         1.1525e-06      4000
Angle:  1   109.47    8.97735e-05     2000
   4880000   96.53322      -923.39645      0             -765.68829     -12.106078    
SHAKE stats (type/ave/delta/count) on step 4890000
Bond:   1   1         1.24773e-06     4000
Angle:  1   109.47    0.000103226     2000
   4890000   94.062552     -930.11223      0             -776.44045     -9.6746053    
SHAKE stats (type/ave/delta/count) on step 4900000
Bond:   1   1         1.19125e-06     4000
Angle:  1   109.47    0.000100079     2000
   4900000   95.140045     -922.22628      0             -766.79418     -12.525136    
SHAKE stats (type/ave/delta/count) on step 4910000
Bond:   1   1         1.29602e-06     4000
Angle:  1   109.47    0.000104521     2000
   4910000   95.437557     -929.57332      0             -773.65518     -2.0719756    
SHAKE stats (type/ave/delta/count) on step 4920000
Bond:   1   1         1.32581e-06     4000
Angle:  1   109.47    0.000108186     2000
   4920000   96.216898     -926.52355      0             -769.33218     -7.4262386    
SHAKE stats (type/ave/delta/count) on step 4930000
Bond:   1   1         1.32747e-06     4000
Angle:  1   109.47    0.000106539     2000
   4930000   93.572683     -922.80399      0             -769.93252     -9.4305543    
SHAKE stats (type/ave/delta/count) on step 4940000
Bond:   1   1         1.48069e-06     4000
Angle:  1   109.47    0.000108609     2000
   4940000   95.154988     -930.35805      0             -774.90154     -5.620697     
SHAKE stats (type/ave/delta/count) on step 4950000
Bond:   1   1         1.21664e-06     4000
Angle:  1   109.47    8.86725e-05     2000
   4950000   93.171794     -928.71717      0             -776.50065     -11.116942    
SHAKE stats (type/ave/delta/count) on step 4960000
Bond:   1   1         1.49741e-06     4000
Angle:  1   109.47    0.000116584     2000
   4960000   96.926975     -928.05712      0             -769.70568     -11.92701     
SHAKE stats (type/ave/delta/count) on step 4970000
Bond:   1   1         1.6554e-06      4000
Angle:  1   109.47    0.000103307     2000
   4970000   94.897488     -923.9286       0             -768.89278     -6.7529667    
SHAKE stats (type/ave/delta/count) on step 4980000
Bond:   1   1         1.6022e-06      4000
Angle:  1   109.47    9.63975e-05     2000
   4980000   94.943267     -925.88504      0             -770.77442     -1.3996559    
SHAKE stats (type/ave/delta/count) on step 4990000
Bond:   1   1         1.63005e-06     4000
Angle:  1   109.47    0.000108526     2000
   4990000   94.170533     -928.60836      0             -774.76018     -0.64394146   
SHAKE stats (type/ave/delta/count) on step 5000000
Bond:   1   1         1.22494e-06     4000
Angle:  1   109.47    9.63552e-05     2000
   5000000   92.200703     -927.37446      0             -776.74442     -5.6799554    
SHAKE stats (type/ave/delta/count) on step 5010000
Bond:   1   1         1.55149e-06     4000
Angle:  1   109.47    0.000118832     2000
   5010000   94.602061     -922.17112      0             -767.61794     -17.172831    
SHAKE stats (type/ave/delta/count) on step 5020000
Bond:   1   1         1.36592e-06     4000
Angle:  1   109.47    9.5129e-05      2000
   5020000   94.851006     -930.3445       0             -775.38461     -3.4756517    
SHAKE stats (type/ave/delta/count) on step 5030000
Bond:   1   1         1.14357e-06     4000
Angle:  1   109.47    0.000100033     2000
   5030000   95.938501     -925.20405      0             -768.4675      -10.621559    
SHAKE stats (type/ave/delta/count) on step 5040000
Bond:   1   1         1.35243e-06     4000
Angle:  1   109.47    0.000130501     2000
   5040000   95.032239     -925.86822      0             -770.61225     -2.0923099    
SHAKE stats (type/ave/delta/count) on step 5050000
Bond:   1   1         1.19152e-06     4000
Angle:  1   109.47    0.00010405      2000
   5050000   96.526609     -927.43231      0             -769.73496     -11.462639    
SHAKE stats (type/ave/delta/count) on step 5060000
Bond:   1   1         1.2057e-06      4000
Angle:  1   109.47    9.25688e-05     2000
   5060000   94.456224     -927.24153      0             -772.9266      -16.001865    
SHAKE stats (type/ave/delta/count) on step 5070000
Bond:   1   1         1.69148e-06     4000
Angle:  1   109.47    0.000138344     2000
   5070000   95.134297     -926.8022       0             -771.37949     -3.5949271    
SHAKE stats (type/ave/delta/count) on step 5080000
Bond:   1   1         1.15723e-06     4000
Angle:  1   109.47    0.0001012       2000
   5080000   97.602262     -926.53827      0             -767.0836      -7.653774     
SHAKE stats (type/ave/delta/count) on step 5090000
Bond:   1   1         1.25725e-06     4000
Angle:  1   109.47    9.65808e-05     2000
   5090000   95.001185     -925.68936      0             -770.48412     -7.8121126    
SHAKE stats (type/ave/delta/count) on step 5100000
Bond:   1   1         1.28403e-06     4000
Angle:  1   109.47    0.000105451     2000
   5100000   95.751862     -925.17735      0             -768.74572     -5.2178669    
SHAKE stats (type/ave/delta/count) on step 5110000
Bond:   1   1         1.22249e-06     4000
Angle:  1   109.47    0.000103553     2000
   5110000   95.292202     -925.60791      0             -769.92723     -3.5655636    
SHAKE stats (type/ave/delta/count) on step 5120000
Bond:   1   1         1.22346e-06     4000
Angle:  1   109.47    0.000113515     2000
   5120000   96.10107      -930.91757      0             -773.91542     -5.921293     
SHAKE stats (type/ave/delta/count) on step 5130000
Bond:   1   1         1.16946e-06     4000
Angle:  1   109.47    0.00010773      2000
   5130000   95.384909     -927.32566      0             -771.49353     -5.8271195    
SHAKE stats (type/ave/delta/count) on step 5140000
Bond:   1   1         1.29057e-06     4000
Angle:  1   109.47    9.08709e-05     2000
   5140000   95.701634     -927.81601      0             -771.46643     -11.971976    
SHAKE stats (type/ave/delta/count) on step 5150000
Bond:   1   1         1.46258e-06     4000
Angle:  1   109.47    9.52792e-05     2000
   5150000   96.277159     -929.57554      0             -772.28572     -2.8635661    
SHAKE stats (type/ave/delta/count) on step 5160000
Bond:   1   1         1.14363e-06     4000
Angle:  1   109.47    9.43844e-05     2000
   5160000   95.101485     -933.96386      0             -778.59476     -6.3471144    
SHAKE stats (type/ave/delta/count) on step 5170000
Bond:   1   1         1.2054e-06      4000
Angle:  1   109.47    9.30484e-05     2000
   5170000   91.941672     -929.60518      0             -779.39833     -10.159502    
SHAKE stats (type/ave/delta/count) on step 5180000
Bond:   1   1         1.1053e-06      4000
Angle:  1   109.47    9.59443e-05     2000
   5180000   93.370142     -931.89824      0             -779.35766     -6.931904     
SHAKE stats (type/ave/delta/count) on step 5190000
Bond:   1   1         1.25879e-06     4000
Angle:  1   109.47    9.78964e-05     2000
   5190000   95.196172     -924.68553      0             -769.16174     -7.1685564    
SHAKE stats (type/ave/delta/count) on step 5200000
Bond:   1   1         1.34875e-06     4000
Angle:  1   109.47    0.000101852     2000
   5200000   96.857953     -925.33526      0             -767.09658     -8.9019356    
SHAKE stats (type/ave/delta/count) on step 5210000
Bond:   1   1         1.22261e-06     4000
Angle:  1   109.47    0.000101456     2000
   5210000   95.591559     -925.65359      0             -769.48384     -3.6171558    
SHAKE stats (type/ave/delta/count) on step 5220000
Bond:   1   1         1.21831e-06     4000
Angle:  1   109.47    0.000101412     2000
   5220000   95.193506     -920.24904      0             -764.7296      -7.6809908    
SHAKE stats (type/ave/delta/count) on step 5230000
Bond:   1   1         1.4284e-06      4000
Angle:  1   109.47    0.000131714     2000
   5230000   96.259069     -919.61869      0             -762.35843     -12.951401    
SHAKE stats (type/ave/delta/count) on step 5240000
Bond:   1   1         1.03939e-06     4000
Angle:  1   109.47    9.01195e-05     2000
   5240000   94.657059     -924.23841      0             -769.59537     -10.413635    
SHAKE stats (type/ave/delta/count) on step 5250000
Bond:   1   1         1.31334e-06     4000
Angle:  1   109.47    0.00011088      2000
   5250000   97.433928     -928.11257      0             -768.93291     -4.23171      
SHAKE stats (type/ave/delta/count) on step 5260000
Bond:   1   1         1.31204e-06     4000
Angle:  1   109.47    9.96772e-05     2000
   5260000   95.2535       -923.6962       0             -768.07875     -6.9976813    
SHAKE stats (type/ave/delta/count) on step 5270000
Bond:   1   1         1.24298e-06     4000
Angle:  1   109.47    9.23923e-05     2000
   5270000   95.31113      -930.684        0             -774.9724      -9.1920061    
SHAKE stats (type/ave/delta/count) on step 5280000
Bond:   1   1         1.66445e-06     4000
Angle:  1   109.47    0.000120259     2000
   5280000   92.826268     -928.52144      0             -776.8694      -5.1240575    
SHAKE stats (type/ave/delta/count) on step 5290000
Bond:   1   1         1.20914e-06     4000
Angle:  1   109.47    8.94709e-05     2000
   5290000   91.624496     -928.24417      0             -778.5555      -1.060576     
SHAKE stats (type/ave/delta/count) on step 5300000
Bond:   1   1         1.22815e-06     4000
Angle:  1   109.47    0.000121071     2000
   5300000   97.122344     -926.26762      0             -767.59701     -4.8421929    
SHAKE stats (type/ave/delta/count) on step 5310000
Bond:   1   1         1.15499e-06     4000
Angle:  1   109.47    9.21569e-05     2000
   5310000   95.533677     -929.96373      0             -773.88855     -3.6344095    
SHAKE stats (type/ave/delta/count) on step 5320000
Bond:   1   1         1.09694e-06     4000
Angle:  1   109.47    9.87578e-05     2000
   5320000   92.594116     -925.69996      0             -774.4272      -9.9266275    
SHAKE stats (type/ave/delta/count) on step 5330000
Bond:   1   1         1.22423e-06     4000
Angle:  1   109.47    8.74652e-05     2000
   5330000   95.113499     -929.11175      0             -773.72302     -6.9234182    
SHAKE stats (type/ave/delta/count) on step 5340000
Bond:   1   1         1.39236e-06     4000
Angle:  1   109.47    9.01119e-05     2000
   5340000   94.502815     -924.36592      0             -769.97488     -8.5547821    
SHAKE stats (type/ave/delta/count) on step 5350000
Bond:   1   1         1.12338e-06     4000
Angle:  1   109.47    9.36068e-05     2000
   5350000   97.023371     -931.17656      0             -772.66763     -3.5343032    
SHAKE stats (type/ave/delta/count) on step 5360000
Bond:   1   1         1.52323e-06     4000
Angle:  1   109.47    0.000124946     2000
   5360000   94.708648     -924.842        0             -770.11469     -7.6963863    
SHAKE stats (type/ave/delta/count) on step 5370000
Bond:   1   1         1.1609e-06      4000
Angle:  1   109.47    9.80919e-05     2000
   5370000   92.985134     -926.23059      0             -774.31902     -6.5372525    
SHAKE stats (type/ave/delta/count) on step 5380000
Bond:   1   1         1.12718e-06     4000
Angle:  1   109.47    9.15018e-05     2000
   5380000   93.841485     -928.35934      0             -775.04873     -8.7033557    
SHAKE stats (type/ave/delta/count) on step 5390000
Bond:   1   1         1.69707e-06     4000
Angle:  1   109.47    0.000126053     2000
   5390000   97.261144     -924.15934      0             -765.26196     -6.7450617    
SHAKE stats (type/ave/delta/count) on step 5400000
Bond:   1   1         1.14558e-06     4000
Angle:  1   109.47    9.88329e-05     2000
   5400000   93.962024     -928.88707      0             -775.37953      2.3798398    
SHAKE stats (type/ave/delta/count) on step 5410000
Bond:   1   1         1.34261e-06     4000
Angle:  1   109.47    0.000101202     2000
   5410000   93.461201     -927.23618      0             -774.54685     -1.5416999    
SHAKE stats (type/ave/delta/count) on step 5420000
Bond:   1   1         1.18558e-06     4000
Angle:  1   109.47    9.56802e-05     2000
   5420000   96.721123     -928.06075      0             -770.04561      3.0381875    
SHAKE stats (type/ave/delta/count) on step 5430000
Bond:   1   1         1.4294e-06      4000
Angle:  1   109.47    0.000128692     2000
   5430000   96.282583     -926.72704      0             -769.42835     -0.082957325  
SHAKE stats (type/ave/delta/count) on step 5440000
Bond:   1   1         1.23908e-06     4000
Angle:  1   109.47    8.91462e-05     2000
   5440000   94.094115     -924.988        0             -771.26466     -13.438363    
SHAKE stats (type/ave/delta/count) on step 5450000
Bond:   1   1         1.75269e-06     4000
Angle:  1   109.47    0.000119103     2000
   5450000   93.809668     -921.76155      0             -768.50292     -1.7957113    
SHAKE stats (type/ave/delta/count) on step 5460000
Bond:   1   1         1.20097e-06     4000
Angle:  1   109.47    8.90843e-05     2000
   5460000   94.242549     -927.84111      0             -773.87527     -4.7088034    
SHAKE stats (type/ave/delta/count) on step 5470000
Bond:   1   1         1.18316e-06     4000
Angle:  1   109.47    8.61409e-05     2000
   5470000   94.749687     -927.8724       0             -773.07804     -4.0052914    
SHAKE stats (type/ave/delta/count) on step 5480000
Bond:   1   1         1.47069e-06     4000
Angle:  1   109.47    0.000106178     2000
   5480000   93.00963      -929.56801      0             -777.61641     -9.4956349    
SHAKE stats (type/ave/delta/count) on step 5490000
Bond:   1   1         1.55883e-06     4000
Angle:  1   109.47    0.000114268     2000
   5490000   95.023887     -927.53599      0             -772.29366     -10.915194    
SHAKE stats (type/ave/delta/count) on step 5500000
Bond:   1   1         1.30082e-06     4000
Angle:  1   109.47    9.3966e-05      2000
   5500000   94.507795     -928.48113      0             -774.08195     -10.644881    
SHAKE stats (type/ave/delta/count) on step 5510000
Bond:   1   1         1.11987e-06     4000
Angle:  1   109.47    0.000121906     2000
   5510000   94.264092     -927.11223      0             -773.11119     -2.1495007    
SHAKE stats (type/ave/delta/count) on step 5520000
Bond:   1   1         1.28857e-06     4000
Angle:  1   109.47    0.000106293     2000
   5520000   95.459831     -922.92212      0             -766.96758     -4.9297238    
SHAKE stats (type/ave/delta/count) on step 5530000
Bond:   1   1         1.4105e-06      4000
Angle:  1   109.47    0.000102113     2000
   5530000   94.744298     -925.91876      0             -771.1332      -4.3368047    
SHAKE stats (type/ave/delta/count) on step 5540000
Bond:   1   1         1.15932e-06     4000
Angle:  1   109.47    9.34138e-05     2000
   5540000   93.192833     -929.82334      0             -777.57244     -2.9474005    
SHAKE stats (type/ave/delta/count) on step 5550000
Bond:   1   1         1.0907e-06      4000
Angle:  1   109.47    9.80311e-05     2000
   5550000   95.377919     -927.75099      0             -771.93027     -6.9399593    
SHAKE stats (type/ave/delta/count) on step 5560000
Bond:   1   1         1.35315e-06     4000
Angle:  1   109.47    0.00010684      2000
   5560000   93.207459     -926.79193      0             -774.51713     -15.629963    
SHAKE stats (type/ave/delta/count) on step 5570000
Bond:   1   1         1.22573e-06     4000
Angle:  1   109.47    0.000107235     2000
   5570000   92.811705     -930.17767      0             -778.54943     -9.6464033    
SHAKE stats (type/ave/delta/count) on step 5580000
Bond:   1   1         1.2516e-06      4000
Angle:  1   109.47    0.000101005     2000
   5580000   93.125369     -928.53222      0             -776.39154     -5.641528     
SHAKE stats (type/ave/delta/count) on step 5590000
Bond:   1   1         1.27868e-06     4000
Angle:  1   109.47    0.000112209     2000
   5590000   93.579795     -929.66516      0             -776.78207     -17.212509    
SHAKE stats (type/ave/delta/count) on step 5600000
Bond:   1   1         1.09614e-06     4000
Angle:  1   109.47    9.1517e-05      2000
   5600000   95.309285     -926.22743      0             -770.51884     -4.2816541    
SHAKE stats (type/ave/delta/count) on step 5610000
Bond:   1   1         1.72176e-06     4000
Angle:  1   109.47    0.000118569     2000
   5610000   95.583465     -925.91892      0             -769.7624      -0.44646751   
SHAKE stats (type/ave/delta/count) on step 5620000
Bond:   1   1         1.18961e-06     4000
Angle:  1   109.47    8.9019e-05      2000
   5620000   95.758457     -927.17529      0             -770.73288      0.0048681284 
SHAKE stats (type/ave/delta/count) on step 5630000
Bond:   1   1         1.25338e-06     4000
Angle:  1   109.47    0.000113902     2000
   5630000   94.972349     -928.2943       0             -773.13617     -2.8273287    
SHAKE stats (type/ave/delta/count) on step 5640000
Bond:   1   1         1.29459e-06     4000
Angle:  1   109.47    8.93055e-05     2000
   5640000   95.513241     -926.97416      0             -770.93237     -22.426418    
SHAKE stats (type/ave/delta/count) on step 5650000
Bond:   1   1         1.61624e-06     4000
Angle:  1   109.47    0.000122548     2000
   5650000   96.00433      -922.39376      0             -765.54967     -13.491033    
SHAKE stats (type/ave/delta/count) on step 5660000
Bond:   1   1         1.12553e-06     4000
Angle:  1   109.47    0.000100708     2000
   5660000   94.734668     -924.83999      0             -770.07016     -6.4534831    
SHAKE stats (type/ave/delta/count) on step 5670000
Bond:   1   1         1.39977e-06     4000
Angle:  1   109.47    0.000105985     2000
   5670000   93.280644     -923.59883      0             -771.20447     -11.552197    
SHAKE stats (type/ave/delta/count) on step 5680000
Bond:   1   1         1.07204e-06     4000
Angle:  1   109.47    0.000101199     2000
   5680000   96.810915     -926.03416      0             -767.87233     -0.88047076   
SHAKE stats (type/ave/delta/count) on step 5690000
Bond:   1   1         1.29485e-06     4000
Angle:  1   109.47    0.000113875     2000
   5690000   94.720437     -928.83875      0             -774.09218     -0.21264227   
SHAKE stats (type/ave/delta/count) on step 5700000
Bond:   1   1         1.21569e-06     4000
Angle:  1   109.47    9.12412e-05     2000
   5700000   94.562716     -926.98094      0             -772.49204     -10.929732    
SHAKE stats (type/ave/delta/count) on step 5710000
Bond:   1   1         1.27837e-06     4000
Angle:  1   109.47    9.55236e-05     2000
   5710000   95.177116     -929.22018      0             -773.72752      0.62243472   
SHAKE stats (type/ave/delta/count) on step 5720000
Bond:   1   1         1.31859e-06     4000
Angle:  1   109.47    0.000101209     2000
   5720000   94.585891     -925.65905      0             -771.13228     -6.6862781    
SHAKE stats (type/ave/delta/count) on step 5730000
Bond:   1   1         1.35237e-06     4000
Angle:  1   109.47    0.000104341     2000
   5730000   92.694981     -925.59143      0             -774.15388     -5.5895551    
SHAKE stats (type/ave/delta/count) on step 5740000
Bond:   1   1         1.23581e-06     4000
Angle:  1   109.47    9.44837e-05     2000
   5740000   93.876818     -931.97193      0             -778.60359     -2.4386508    
SHAKE stats (type/ave/delta/count) on step 5750000
Bond:   1   1         1.76175e-06     4000
Angle:  1   109.47    0.000143389     2000
   5750000   95.397776     -922.75438      0             -766.90123     -10.258999    
SHAKE stats (type/ave/delta/count) on step 5760000
Bond:   1   1         1.03767e-06     4000
Angle:  1   109.47    9.25685e-05     2000
   5760000   95.709738     -924.34768      0             -767.98487     -7.7489908    
SHAKE stats (type/ave/delta/count) on step 5770000
Bond:   1   1         1.39211e-06     4000
Angle:  1   109.47    0.00010098      2000
   5770000   95.272464     -930.68815      0             -775.03972     -10.744153    
SHAKE stats (type/ave/delta/count) on step 5780000
Bond:   1   1         1.05331e-06     4000
Angle:  1   109.47    8.97969e-05     2000
   5780000   91.419636     -926.0128       0             -776.65881     -4.4827235    
SHAKE stats (type/ave/delta/count) on step 5790000
Bond:   1   1         1.41075e-06     4000
Angle:  1   109.47    0.00010518      2000
   5790000   94.40129      -928.35624      0             -774.13106     -12.552058    
SHAKE stats (type/ave/delta/count) on step 5800000
Bond:   1   1         1.10445e-06     4000
Angle:  1   109.47    0.000100723     2000
   5800000   94.009678     -924.97217      0             -771.38677     -8.8637734    
SHAKE stats (type/ave/delta/count) on step 5810000
Bond:   1   1         1.44426e-06     4000
Angle:  1   109.47    0.000108631     2000
   5810000   94.836771     -926.04665      0             -771.11001     -4.7101537    
SHAKE stats (type/ave/delta/count) on step 5820000
Bond:   1   1         1.22346e-06     4000
Angle:  1   109.47    8.77084e-05     2000
   5820000   93.951285     -930.03633      0             -776.54633     -12.418354    
SHAKE stats (type/ave/delta/count) on step 5830000
Bond:   1   1         1.26185e-06     4000
Angle:  1   109.47    0.000110063     2000
   5830000   94.866326     -927.21626      0             -772.23134     -10.746528    
SHAKE stats (type/ave/delta/count) on step 5840000
Bond:   1   1         1.30896e-06     4000
Angle:  1   109.47    0.000119848     2000
   5840000   93.087657     -922.70895      0             -770.62987     -7.8226011    
SHAKE stats (type/ave/delta/count) on step 5850000
Bond:   1   1         1.22911e-06     4000
Angle:  1   109.47    9.46618e-05     2000
   5850000   94.599171     -927.79299      0             -773.24453     -5.9088192    
SHAKE stats (type/ave/delta/count) on step 5860000
Bond:   1   1         1.70122e-06     4000
Angle:  1   109.47    0.000112846     2000
   5860000   95.308801     -926.8512       0             -771.1434       1.0241201    
SHAKE stats (type/ave/delta/count) on step 5870000
Bond:   1   1         1.63014e-06     4000
Angle:  1   109.47    0.000141401     2000
   5870000   94.657803     -924.52577      0             -769.88152     -3.8399505    
SHAKE stats (type/ave/delta/count) on step 5880000
Bond:   1   1         1.12227e-06     4000
Angle:  1   109.47    0.000117231     2000
   5880000   95.27055      -927.1189       0             -771.4736       1.9705417    
SHAKE stats (type/ave/delta/count) on step 5890000
Bond:   1   1         1.42493e-06     4000
Angle:  1   109.47    9.47747e-05     2000
   5890000   94.907234     -927.14663      0             -772.09488     -8.911882     
SHAKE stats (type/ave/delta/count) on step 5900000
Bond:   1   1         1.161e-06       4000
Angle:  1   109.47    9.27564e-05     2000
   5900000   95.257676     -928.07104      0             -772.44677     -5.6801718    
SHAKE stats (type/ave/delta/count) on step 5910000
Bond:   1   1         1.16366e-06     4000
Angle:  1   109.47    9.8503e-05      2000
   5910000   93.1636       -920.50574      0             -768.30259     -1.2706077    
SHAKE stats (type/ave/delta/count) on step 5920000
Bond:   1   1         1.78592e-06     4000
Angle:  1   109.47    0.000143203     2000
   5920000   95.437785     -927.77398      0             -771.85546      0.10341559   
SHAKE stats (type/ave/delta/count) on step 5930000
Bond:   1   1         1.36046e-06     4000
Angle:  1   109.47    0.000106256     2000
   5930000   94.458559     -922.82668      0             -768.50794     -12.41891     
SHAKE stats (type/ave/delta/count) on step 5940000
Bond:   1   1         1.23632e-06     4000
Angle:  1   109.47    9.1271e-05      2000
   5940000   96.190805     -928.81764      0             -771.6689       8.1329735    
SHAKE stats (type/ave/delta/count) on step 5950000
Bond:   1   1         1.17545e-06     4000
Angle:  1   109.47    0.00010545      2000
   5950000   94.394592     -931.48211      0             -777.26787     -8.1586344    
SHAKE stats (type/ave/delta/count) on step 5960000
Bond:   1   1         1.29071e-06     4000
Angle:  1   109.47    0.000106012     2000
   5960000   93.809755     -924.3618       0             -771.10302     -7.2229847    
SHAKE stats (type/ave/delta/count) on step 5970000
Bond:   1   1         1.4473e-06      4000
Angle:  1   109.47    0.000108096     2000
   5970000   96.789823     -930.41741      0             -772.29004     -3.8432791    
SHAKE stats (type/ave/delta/count) on step 5980000
Bond:   1   1         2.38465e-06     4000
Angle:  1   109.47    0.000138885     2000
   5980000   96.760343     -932.97463      0             -774.89542     -8.879308     
SHAKE stats (type/ave/delta/count) on step 5990000
Bond:   1   1         1.33959e-06     4000
Angle:  1   109.47    0.00010259      2000
   5990000   94.293687     -922.83641      0             -768.78703     -1.0226558    
SHAKE stats (type/ave/delta/count) on step 6000000
Bond:   1   1         1.57698e-06     4000
Angle:  1   109.47    0.000101631     2000
   6000000   95.350817     -925.36748      0             -769.59104     -4.4975802    
SHAKE stats (type/ave/delta/count) on step 6010000
Bond:   1   1         1.10528e-06     4000
Angle:  1   109.47    9.70181e-05     2000
   6010000   94.633574     -927.86263      0             -773.25796     -7.0351683    
SHAKE stats (type/ave/delta/count) on step 6020000
Bond:   1   1         1.08851e-06     4000
Angle:  1   109.47    9.0799e-05      2000
   6020000   95.966513     -931.76997      0             -774.98765      0.27148756   
SHAKE stats (type/ave/delta/count) on step 6030000
Bond:   1   1         1.04652e-06     4000
Angle:  1   109.47    8.83516e-05     2000
   6030000   93.791646     -928.64418      0             -775.41498     -6.1835607    
SHAKE stats (type/ave/delta/count) on step 6040000
Bond:   1   1         1.07816e-06     4000
Angle:  1   109.47    9.14057e-05     2000
   6040000   96.440796     -925.47065      0             -767.91349     -5.890306     
SHAKE stats (type/ave/delta/count) on step 6050000
Bond:   1   1         1.27868e-06     4000
Angle:  1   109.47    0.00010115      2000
   6050000   95.154079     -924.60036      0             -769.14533     -9.1245941    
SHAKE stats (type/ave/delta/count) on step 6060000
Bond:   1   1         1.22098e-06     4000
Angle:  1   109.47    0.00010285      2000
   6060000   95.503013     -927.32948      0             -771.30439     -3.0227826    
SHAKE stats (type/ave/delta/count) on step 6070000
Bond:   1   1         1.3142e-06      4000
Angle:  1   109.47    9.21609e-05     2000
   6070000   93.217862     -927.17057      0             -774.87878      2.4311096    
SHAKE stats (type/ave/delta/count) on step 6080000
Bond:   1   1         1.25454e-06     4000
Angle:  1   109.47    9.58785e-05     2000
   6080000   95.671383     -929.99066      0             -773.69051     -13.459535    
SHAKE stats (type/ave/delta/count) on step 6090000
Bond:   1   1         1.26817e-06     4000
Angle:  1   109.47    8.91272e-05     2000
   6090000   94.657769     -927.54381      0             -772.89962     -6.8891631    
SHAKE stats (type/ave/delta/count) on step 6100000
Bond:   1   1         1.44279e-06     4000
Angle:  1   109.47    0.000112562     2000
   6100000   95.657035     -927.15169      0             -770.87498      1.7668031    
SHAKE stats (type/ave/delta/count) on step 6110000
Bond:   1   1         1.63547e-06     4000
Angle:  1   109.47    0.000104398     2000
   6110000   94.890439     -928.3925       0             -773.36819     -0.11916552   
SHAKE stats (type/ave/delta/count) on step 6120000
Bond:   1   1         1.5854e-06      4000
Angle:  1   109.47    0.000124463     2000
   6120000   96.852462     -926.84969      0             -768.61998     -2.6000875    
SHAKE stats (type/ave/delta/count) on step 6130000
Bond:   1   1         1.25347e-06     4000
Angle:  1   109.47    9.05915e-05     2000
   6130000   95.232171     -925.46677      0             -769.88417     -11.569886    
SHAKE stats (type/ave/delta/count) on step 6140000
Bond:   1   1         1.16747e-06     4000
Angle:  1   109.47    0.000117848     2000
   6140000   94.768693     -922.86936      0             -768.04395     -0.041602444  
SHAKE stats (type/ave/delta/count) on step 6150000
Bond:   1   1         1.41315e-06     4000
Angle:  1   109.47    0.000125111     2000
   6150000   94.422963     -929.41342      0             -775.15284     -8.0349298    
SHAKE stats (type/ave/delta/count) on step 6160000
Bond:   1   1         1.10647e-06     4000
Angle:  1   109.47    9.41021e-05     2000
   6160000   94.62003      -934.13778      0             -779.55524     -6.6770566    
SHAKE stats (type/ave/delta/count) on step 6170000
Bond:   1   1         1.08815e-06     4000
Angle:  1   109.47    9.75447e-05     2000
   6170000   94.420776     -922.53934      0             -768.28233     -7.6749533    
SHAKE stats (type/ave/delta/count) on step 6180000
Bond:   1   1         1.15609e-06     4000
Angle:  1   109.47    0.000123664     2000
   6180000   95.089956     -928.01141      0             -772.66115     -7.3571315    
SHAKE stats (type/ave/delta/count) on step 6190000
Bond:   1   1         1.37685e-06     4000
Angle:  1   109.47    0.000135334     2000
   6190000   93.560998     -932.07612      0             -779.22374     -0.41149167   
SHAKE stats (type/ave/delta/count) on step 6200000
Bond:   1   1         1.21981e-06     4000
Angle:  1   109.47    0.000120178     2000
   6200000   94.915424     -925.91458      0             -770.84945     -0.21984361   
SHAKE stats (type/ave/delta/count) on step 6210000
Bond:   1   1         1.37327e-06     4000
Angle:  1   109.47    0.000104467     2000
   6210000   93.646335     -932.09503      0             -779.10324     -5.4590195    
SHAKE stats (type/ave/delta/count) on step 6220000
Bond:   1   1         1.19785e-06     4000
Angle:  1   109.47    9.53384e-05     2000
   6220000   94.030149     -921.92061      0             -768.30178     -15.370208    
SHAKE stats (type/ave/delta/count) on step 6230000
Bond:   1   1         1.12916e-06     4000
Angle:  1   109.47    9.77914e-05     2000
   6230000   94.976319     -925.6542       0             -770.48959     -6.365417     
SHAKE stats (type/ave/delta/count) on step 6240000
Bond:   1   1         1.38683e-06     4000
Angle:  1   109.47    0.000128674     2000
   6240000   94.657318     -923.794        0             -769.15055     -1.3620221    
SHAKE stats (type/ave/delta/count) on step 6250000
Bond:   1   1         1.16015e-06     4000
Angle:  1   109.47    9.18357e-05     2000
   6250000   95.792845     -926.85932      0             -770.36073     -13.85896     
SHAKE stats (type/ave/delta/count) on step 6260000
Bond:   1   1         1.07023e-06     4000
Angle:  1   109.47    8.72764e-05     2000
   6260000   96.901724     -925.91858      0             -767.6084      -10.286453    
SHAKE stats (type/ave/delta/count) on step 6270000
Bond:   1   1         1.16902e-06     4000
Angle:  1   109.47    9.26427e-05     2000
   6270000   96.817613     -925.81857      0             -767.6458      -13.589343    
SHAKE stats (type/ave/delta/count) on step 6280000
Bond:   1   1         1.11418e-06     4000
Angle:  1   109.47    0.00010446      2000
   6280000   93.642652     -930.13654      0             -777.15076     -7.7192867    
SHAKE stats (type/ave/delta/count) on step 6290000
Bond:   1   1         1.22175e-06     4000
Angle:  1   109.47    9.56112e-05     2000
   6290000   95.53784      -932.64233      0             -776.56034     -7.0141477    
SHAKE stats (type/ave/delta/count) on step 6300000
Bond:   1   1         1.39533e-06     4000
Angle:  1   109.47    0.000113799     2000
   6300000   95.6652       -924.78844      0             -768.49839     -3.7465599    
SHAKE stats (type/ave/delta/count) on step 6310000
Bond:   1   1         1.47394e-06     4000
Angle:  1   109.47    0.000106037     2000
   6310000   95.422366     -928.72988      0             -772.83655     -2.8243021    
SHAKE stats (type/ave/delta/count) on step 6320000
Bond:   1   1         1.38708e-06     4000
Angle:  1   109.47    0.000100003     2000
   6320000   94.885506     -930.7672       0             -775.75094     -4.8447032    
SHAKE stats (type/ave/delta/count) on step 6330000
Bond:   1   1         1.35944e-06     4000
Angle:  1   109.47    9.15947e-05     2000
   6330000   96.698403     -929.10325      0             -771.12524     -0.71663423   
SHAKE stats (type/ave/delta/count) on step 6340000
Bond:   1   1         1.37364e-06     4000
Angle:  1   109.47    0.000113887     2000
   6340000   94.160777     -925.89546      0             -772.06321      4.3032164    
SHAKE stats (type/ave/delta/count) on step 6350000
Bond:   1   1         1.24829e-06     4000
Angle:  1   109.47    0.000101876     2000
   6350000   94.944517     -926.93989      0             -771.82723     -3.8118742    
SHAKE stats (type/ave/delta/count) on step 6360000
Bond:   1   1         1.2024e-06      4000
Angle:  1   109.47    0.00011697      2000
   6360000   93.793635     -928.47782      0             -775.24538     -10.088431    
SHAKE stats (type/ave/delta/count) on step 6370000
Bond:   1   1         1.1565e-06      4000
Angle:  1   109.47    9.11656e-05     2000
   6370000   94.633634     -924.80007      0             -770.19531     -7.6168477    
SHAKE stats (type/ave/delta/count) on step 6380000
Bond:   1   1         1.10705e-06     4000
Angle:  1   109.47    0.000104867     2000
   6380000   95.895591     -934.01849      0             -777.35205     -2.4263891    
SHAKE stats (type/ave/delta/count) on step 6390000
Bond:   1   1         1.38273e-06     4000
Angle:  1   109.47    9.94123e-05     2000
   6390000   95.280522     -920.14539      0             -764.48379     -5.0278967    
SHAKE stats (type/ave/delta/count) on step 6400000
Bond:   1   1         1.67776e-06     4000
Angle:  1   109.47    0.000129316     2000
   6400000   95.903534     -927.84959      0             -771.17017     -11.263694    
SHAKE stats (type/ave/delta/count) on step 6410000
Bond:   1   1         1.48143e-06     4000
Angle:  1   109.47    0.00010326      2000
   6410000   94.848286     -929.27638      0             -774.32094     -7.5703959    
SHAKE stats (type/ave/delta/count) on step 6420000
Bond:   1   1         1.18352e-06     4000
Angle:  1   109.47    0.000102483     2000
   6420000   93.610607     -931.07369      0             -778.14026      1.2999954    
SHAKE stats (type/ave/delta/count) on step 6430000
Bond:   1   1         1.06888e-06     4000
Angle:  1   109.47    8.48193e-05     2000
   6430000   94.239789     -929.82606      0             -775.86473     -5.7054473    
SHAKE stats (type/ave/delta/count) on step 6440000
Bond:   1   1         1.17491e-06     4000
Angle:  1   109.47    9.94957e-05     2000
   6440000   94.227365     -931.68956      0             -777.74852     -7.9878052    
SHAKE stats (type/ave/delta/count) on step 6450000
Bond:   1   1         1.91153e-06     4000
Angle:  1   109.47    0.00015293      2000
   6450000   93.522815     -932.5246       0             -779.7346      -4.1150418    
SHAKE stats (type/ave/delta/count) on step 6460000
Bond:   1   1         1.23882e-06     4000
Angle:  1   109.47    9.69186e-05     2000
   6460000   97.201515     -922.49283      0             -763.69287     -6.8447624    
SHAKE stats (type/ave/delta/count) on step 6470000
Bond:   1   1         1.41959e-06     4000
Angle:  1   109.47    0.00010162      2000
   6470000   92.063004     -929.3597       0             -778.95462     -0.70116123   
SHAKE stats (type/ave/delta/count) on step 6480000
Bond:   1   1         1.12724e-06     4000
Angle:  1   109.47    9.01528e-05     2000
   6480000   94.363865     -926.71687      0             -772.55284     -4.8104413    
SHAKE stats (type/ave/delta/count) on step 6490000
Bond:   1   1         1.29971e-06     4000
Angle:  1   109.47    9.93939e-05     2000
   6490000   95.043979     -925.09388      0             -769.81873     -10.612859    
SHAKE stats (type/ave/delta/count) on step 6500000
Bond:   1   1         1.40012e-06     4000
Angle:  1   109.47    0.000101391     2000
   6500000   95.242304     -932.89826      0             -777.2991      -5.5466294    
SHAKE stats (type/ave/delta/count) on step 6510000
Bond:   1   1         1.61621e-06     4000
Angle:  1   109.47    0.000102834     2000
   6510000   96.149891     -928.07665      0             -770.99475     -4.2117109    
SHAKE stats (type/ave/delta/count) on step 6520000
Bond:   1   1         1.09198e-06     4000
Angle:  1   109.47    9.14678e-05     2000
   6520000   91.822342     -929.49571      0             -779.48381      3.9070226    
SHAKE stats (type/ave/delta/count) on step 6530000
Bond:   1   1         1.25645e-06     4000
Angle:  1   109.47    0.000110117     2000
   6530000   92.900759     -930.63301      0             -778.85928     -1.7985618    
SHAKE stats (type/ave/delta/count) on step 6540000
Bond:   1   1         1.0458e-06      4000
Angle:  1   109.47    9.72177e-05     2000
   6540000   93.665212     -930.92502      0             -777.90238      1.4340191    
SHAKE stats (type/ave/delta/count) on step 6550000
Bond:   1   1         1.34212e-06     4000
Angle:  1   109.47    0.000103262     2000
   6550000   96.39461      -926.35619      0             -768.87449     -10.400204    
SHAKE stats (type/ave/delta/count) on step 6560000
Bond:   1   1         2.05619e-06     4000
Angle:  1   109.47    0.000130396     2000
   6560000   94.243486     -930.20975      0             -776.24238     -10.990435    
SHAKE stats (type/ave/delta/count) on step 6570000
Bond:   1   1         1.99065e-06     4000
Angle:  1   109.47    0.000163344     2000
   6570000   94.627891     -928.43081      0             -773.83543     -10.489287    
SHAKE stats (type/ave/delta/count) on step 6580000
Bond:   1   1         1.08633e-06     4000
Angle:  1   109.47    8.83865e-05     2000
   6580000   93.848944     -935.5108       0             -782.188       -9.8502662    
SHAKE stats (type/ave/delta/count) on step 6590000
Bond:   1   1         1.25311e-06     4000
Angle:  1   109.47    0.000104496     2000
   6590000   94.937619     -930.80462      0             -775.70323      0.35819583   
SHAKE stats (type/ave/delta/count) on step 6600000
Bond:   1   1         1.49538e-06     4000
Angle:  1   109.47    0.000114675     2000
   6600000   94.868699     -928.38424      0             -773.39545     -6.3852806    
SHAKE stats (type/ave/delta/count) on step 6610000
Bond:   1   1         1.36291e-06     4000
Angle:  1   109.47    0.0001152       2000
   6610000   94.181932     -932.05905      0             -778.19224     -4.6415674    
SHAKE stats (type/ave/delta/count) on step 6620000
Bond:   1   1         1.33656e-06     4000
Angle:  1   109.47    0.000109196     2000
   6620000   94.727948     -928.67336      0             -773.91452     -11.728224    
SHAKE stats (type/ave/delta/count) on step 6630000
Bond:   1   1         1.34832e-06     4000
Angle:  1   109.47    0.000110439     2000
   6630000   95.186799     -927.64963      0             -772.14115     -10.499347    
SHAKE stats (type/ave/delta/count) on step 6640000
Bond:   1   1         1.37124e-06     4000
Angle:  1   109.47    9.34775e-05     2000
   6640000   95.720251     -927.86256      0             -771.48257     -9.3189249    
SHAKE stats (type/ave/delta/count) on step 6650000
Bond:   1   1         1.03184e-06     4000
Angle:  1   109.47    9.01178e-05     2000
   6650000   93.138445     -928.46001      0             -776.29797     -2.5294434    
SHAKE stats (type/ave/delta/count) on step 6660000
Bond:   1   1         1.44598e-06     4000
Angle:  1   109.47    0.000115351     2000
   6660000   98.065107     -934.47994      0             -774.26911     -0.57759813   
SHAKE stats (type/ave/delta/count) on step 6670000
Bond:   1   1         1.25511e-06     4000
Angle:  1   109.47    0.000104695     2000
   6670000   93.219015     -924.40291      0             -772.10924     -8.8686552    
SHAKE stats (type/ave/delta/count) on step 6680000
Bond:   1   1         1.25184e-06     4000
Angle:  1   109.47    0.000116319     2000
   6680000   94.024691     -927.37781      0             -773.76789     -15.338411    
SHAKE stats (type/ave/delta/count) on step 6690000
Bond:   1   1         1.48106e-06     4000
Angle:  1   109.47    0.000109309     2000
   6690000   93.777084     -926.61749      0             -773.41209     -1.8098655    
SHAKE stats (type/ave/delta/count) on step 6700000
Bond:   1   1         1.337e-06       4000
Angle:  1   109.47    0.000103691     2000
   6700000   95.477372     -929.24031      0             -773.25712     -11.414596    
SHAKE stats (type/ave/delta/count) on step 6710000
Bond:   1   1         1.06302e-06     4000
Angle:  1   109.47    0.000115887     2000
   6710000   94.450128     -930.16888      0             -775.86392     -4.2297626    
SHAKE stats (type/ave/delta/count) on step 6720000
Bond:   1   1         1.43495e-06     4000
Angle:  1   109.47    0.00013568      2000
   6720000   94.17259      -927.22701      0             -773.37547      2.3342384    
SHAKE stats (type/ave/delta/count) on step 6730000
Bond:   1   1         1.662e-06       4000
Angle:  1   109.47    0.000134792     2000
   6730000   93.266669     -931.47369      0             -779.10216     -2.8163898    
SHAKE stats (type/ave/delta/count) on step 6740000
Bond:   1   1         1.17209e-06     4000
Angle:  1   109.47    9.143e-05       2000
   6740000   95.75515      -927.87671      0             -771.4397      -7.4622       
SHAKE stats (type/ave/delta/count) on step 6750000
Bond:   1   1         1.14565e-06     4000
Angle:  1   109.47    9.39232e-05     2000
   6750000   93.356003     -926.69588      0             -774.17841     -15.021164    
SHAKE stats (type/ave/delta/count) on step 6760000
Bond:   1   1         1.0213e-06      4000
Angle:  1   109.47    9.59822e-05     2000
   6760000   97.419275     -928.77111      0             -769.6154      -0.11074431   
SHAKE stats (type/ave/delta/count) on step 6770000
Bond:   1   1         1.067e-06       4000
Angle:  1   109.47    9.78935e-05     2000
   6770000   95.641893     -928.8095       0             -772.55753     -1.1460774    
SHAKE stats (type/ave/delta/count) on step 6780000
Bond:   1   1         1.42796e-06     4000
Angle:  1   109.47    0.000102724     2000
   6780000   93.977898     -930.04475      0             -776.51127     -1.357456     
SHAKE stats (type/ave/delta/count) on step 6790000
Bond:   1   1         1.26957e-06     4000
Angle:  1   109.47    0.000106584     2000
   6790000   95.862305     -924.51864      0             -767.90657     -2.8955333    
SHAKE stats (type/ave/delta/count) on step 6800000
Bond:   1   1         1.13341e-06     4000
Angle:  1   109.47    9.7529e-05      2000
   6800000   94.221126     -931.76433      0             -777.83349     -6.5494872    
SHAKE stats (type/ave/delta/count) on step 6810000
Bond:   1   1         1.12198e-06     4000
Angle:  1   109.47    8.79413e-05     2000
   6810000   94.057284     -927.22517      0             -773.562       -4.0710616    
SHAKE stats (type/ave/delta/count) on step 6820000
Bond:   1   1         1.91264e-06     4000
Angle:  1   109.47    0.000135125     2000
   6820000   94.58806      -933.7961       0             -779.26579     -5.7113271    
SHAKE stats (type/ave/delta/count) on step 6830000
Bond:   1   1         1.15611e-06     4000
Angle:  1   109.47    9.64854e-05     2000
   6830000   94.880517     -931.71133      0             -776.70323     -8.0721008    
SHAKE stats (type/ave/delta/count) on step 6840000
Bond:   1   1         1.27582e-06     4000
Angle:  1   109.47    0.000104286     2000
   6840000   93.098126     -933.97115      0             -781.87498     -11.598993    
SHAKE stats (type/ave/delta/count) on step 6850000
Bond:   1   1         1.44436e-06     4000
Angle:  1   109.47    0.000114702     2000
   6850000   95.960049     -931.9987       0             -775.22695     -12.306769    
SHAKE stats (type/ave/delta/count) on step 6860000
Bond:   1   1         1.24685e-06     4000
Angle:  1   109.47    0.000107364     2000
   6860000   96.527374     -934.08743      0             -776.38882     -5.0721095    
SHAKE stats (type/ave/delta/count) on step 6870000
Bond:   1   1         1.1952e-06      4000
Angle:  1   109.47    0.00010229      2000
   6870000   95.740402     -935.4          0             -778.98709      4.6453286    
SHAKE stats (type/ave/delta/count) on step 6880000
Bond:   1   1         1.26188e-06     4000
Angle:  1   109.47    9.35897e-05     2000
   6880000   94.531104     -925.77053      0             -771.33327     -7.1598277    
SHAKE stats (type/ave/delta/count) on step 6890000
Bond:   1   1         1.16753e-06     4000
Angle:  1   109.47    0.000100565     2000
   6890000   95.786186     -926.85706      0             -770.36935     -0.73182192   
SHAKE stats (type/ave/delta/count) on step 6900000
Bond:   1   1         1.36084e-06     4000
Angle:  1   109.47    9.07251e-05     2000
   6900000   93.272234     -930.96407      0             -778.58345     -1.3768073    
SHAKE stats (type/ave/delta/count) on step 6910000
Bond:   1   1         1.23642e-06     4000
Angle:  1   109.47    9.17652e-05     2000
   6910000   95.797592     -927.90083      0             -771.39449     -8.2835402    
SHAKE stats (type/ave/delta/count) on step 6920000
Bond:   1   1         1.26297e-06     4000
Angle:  1   109.47    0.000107806     2000
   6920000   95.312792     -928.08002      0             -772.36571     -6.4276903    
SHAKE stats (type/ave/delta/count) on step 6930000
Bond:   1   1         1.2254e-06      4000
Angle:  1   109.47    9.30725e-05     2000
   6930000   94.718578     -926.38406      0             -771.64052     -3.8984238    
SHAKE stats (type/ave/delta/count) on step 6940000
Bond:   1   1         1.27122e-06     4000
Angle:  1   109.47    0.000129619     2000
   6940000   95.525949     -930.08386      0             -774.02131     -2.9278412    
SHAKE stats (type/ave/delta/count) on step 6950000
Bond:   1   1         1.08563e-06     4000
Angle:  1   109.47    9.09453e-05     2000
   6950000   96.780765     -928.14244      0             -770.02987     -0.61989235   
SHAKE stats (type/ave/delta/count) on step 6960000
Bond:   1   1         1.1025e-06      4000
Angle:  1   109.47    9.50942e-05     2000
   6960000   96.350795     -926.81091      0             -769.40079     -1.4155081    
SHAKE stats (type/ave/delta/count) on step 6970000
Bond:   1   1         1.34661e-06     4000
Angle:  1   109.47    0.000100489     2000
   6970000   94.046127     -927.96506      0             -774.32012     -5.4392634    
SHAKE stats (type/ave/delta/count) on step 6980000
Bond:   1   1         1.38915e-06     4000
Angle:  1   109.47    0.000127696     2000
   6980000   93.999402     -928.07007      0             -774.50147     -8.4325234    
SHAKE stats (type/ave/delta/count) on step 6990000
Bond:   1   1         1.23446e-06     4000
Angle:  1   109.47    9.44681e-05     2000
   6990000   96.181698     -930.78212      0             -773.64826     -10.085818    
SHAKE stats (type/ave/delta/count) on step 7000000
Bond:   1   1         1.21717e-06     4000
Angle:  1   109.47    0.000128853     2000
   7000000   95.245326     -926.92024      0             -771.31615     -11.613708    
SHAKE stats (type/ave/delta/count) on step 7010000
Bond:   1   1         1.43397e-06     4000
Angle:  1   109.47    0.000126376     2000
   7010000   95.671017     -926.50542      0             -770.20586     -5.4637305    
SHAKE stats (type/ave/delta/count) on step 7020000
Bond:   1   1         1.1592e-06      4000
Angle:  1   109.47    9.84664e-05     2000
   7020000   94.05853      -932.51775      0             -778.85254     -3.1406971    
SHAKE stats (type/ave/delta/count) on step 7030000
Bond:   1   1         1.30142e-06     4000
Angle:  1   109.47    0.000108625     2000
   7030000   94.67557      -923.03123      0             -768.35795      6.7961294    
SHAKE stats (type/ave/delta/count) on step 7040000
Bond:   1   1         1.09709e-06     4000
Angle:  1   109.47    9.17371e-05     2000
   7040000   94.590075     -925.23064      0             -770.69704     -10.501325    
SHAKE stats (type/ave/delta/count) on step 7050000
Bond:   1   1         1.04187e-06     4000
Angle:  1   109.47    9.68904e-05     2000
   7050000   96.083046     -928.2124       0             -771.23971     -6.598456     
SHAKE stats (type/ave/delta/count) on step 7060000
Bond:   1   1         2.19314e-06     4000
Angle:  1   109.47    0.000116951     2000
   7060000   94.66915      -933.67746      0             -779.01467     -3.8620329    
SHAKE stats (type/ave/delta/count) on step 7070000
Bond:   1   1         1.18838e-06     4000
Angle:  1   109.47    0.000105551     2000
   7070000   95.770826     -927.64339      0             -771.18077     -3.8944653    
SHAKE stats (type/ave/delta/count) on step 7080000
Bond:   1   1         1.6171e-06      4000
Angle:  1   109.47    0.000132371     2000
   7080000   94.759979     -926.31583      0             -771.50466     -5.644305     
SHAKE stats (type/ave/delta/count) on step 7090000
Bond:   1   1         1.27732e-06     4000
Angle:  1   109.47    9.68958e-05     2000
   7090000   94.855029     -921.14392      0             -766.17746     -10.861058    
SHAKE stats (type/ave/delta/count) on step 7100000
Bond:   1   1         1.24295e-06     4000
Angle:  1   109.47    9.65207e-05     2000
   7100000   95.405498     -931.94725      0             -776.08148     -1.965601     
SHAKE stats (type/ave/delta/count) on step 7110000
Bond:   1   1         1.27415e-06     4000
Angle:  1   109.47    0.000112875     2000
   7110000   94.163836     -932.69245      0             -778.8552       1.7136921    
SHAKE stats (type/ave/delta/count) on step 7120000
Bond:   1   1         1.41814e-06     4000
Angle:  1   109.47    9.70571e-05     2000
   7120000   93.676285     -930.43377      0             -777.39305     -8.7066764    
SHAKE stats (type/ave/delta/count) on step 7130000
Bond:   1   1         1.12736e-06     4000
Angle:  1   109.47    0.000118962     2000
   7130000   94.935405     -931.23002      0             -776.13224      0.1419914    
SHAKE stats (type/ave/delta/count) on step 7140000
Bond:   1   1         1.33037e-06     4000
Angle:  1   109.47    0.000108812     2000
   7140000   94.711722     -932.33057      0             -777.59823     -11.209109    
SHAKE stats (type/ave/delta/count) on step 7150000
Bond:   1   1         1.18998e-06     4000
Angle:  1   109.47    0.00010616      2000
   7150000   92.652009     -931.00056      0             -779.63321     -16.362186    
SHAKE stats (type/ave/delta/count) on step 7160000
Bond:   1   1         1.13556e-06     4000
Angle:  1   109.47    9.1109e-05      2000
   7160000   96.145702     -929.8661       0             -772.79104     -9.3795128    
SHAKE stats (type/ave/delta/count) on step 7170000
Bond:   1   1         1.58194e-06     4000
Angle:  1   109.47    0.000118324     2000
   7170000   96.568375     -926.5243       0             -768.75872     -9.1030385    
SHAKE stats (type/ave/delta/count) on step 7180000
Bond:   1   1         1.17482e-06     4000
Angle:  1   109.47    9.06151e-05     2000
   7180000   95.907456     -934.06421      0             -777.37838     -10.54095     
SHAKE stats (type/ave/delta/count) on step 7190000
Bond:   1   1         1.22881e-06     4000
Angle:  1   109.47    9.19335e-05     2000
   7190000   94.071233     -929.14743      0             -775.46148     -11.024678    
SHAKE stats (type/ave/delta/count) on step 7200000
Bond:   1   1         1.41815e-06     4000
Angle:  1   109.47    0.000107068     2000
   7200000   94.055875     -931.47198      0             -777.81111     -17.731031    
SHAKE stats (type/ave/delta/count) on step 7210000
Bond:   1   1         1.09844e-06     4000
Angle:  1   109.47    9.01924e-05     2000
   7210000   95.410801     -934.48317      0             -778.60874     -6.8200523    
SHAKE stats (type/ave/delta/count) on step 7220000
Bond:   1   1         1.81671e-06     4000
Angle:  1   109.47    0.000113601     2000
   7220000   95.026689     -926.8828       0             -771.6359      -8.355758     
SHAKE stats (type/ave/delta/count) on step 7230000
Bond:   1   1         9.91563e-07     4000
Angle:  1   109.47    9.21093e-05     2000
   7230000   93.506801     -929.03655      0             -776.27271     -6.5761229    
SHAKE stats (type/ave/delta/count) on step 7240000
Bond:   1   1         1.16381e-06     4000
Angle:  1   109.47    9.15791e-05     2000
   7240000   94.585072     -928.32671      0             -773.80128     -5.2889686    
SHAKE stats (type/ave/delta/count) on step 7250000
Bond:   1   1         1.13628e-06     4000
Angle:  1   109.47    0.000102851     2000
   7250000   95.39686      -928.90042      0             -773.04876     -2.4184424    
SHAKE stats (type/ave/delta/count) on step 7260000
Bond:   1   1         1.36975e-06     4000
Angle:  1   109.47    0.000100421     2000
   7260000   96.348305     -926.8705       0             -769.46445     -0.11859442   
SHAKE stats (type/ave/delta/count) on step 7270000
Bond:   1   1         1.47233e-06     4000
Angle:  1   109.47    0.000100071     2000
   7270000   93.581613     -928.94522      0             -776.05916     -3.4146494    
SHAKE stats (type/ave/delta/count) on step 7280000
Bond:   1   1         1.17075e-06     4000
Angle:  1   109.47    8.82275e-05     2000
   7280000   95.687007     -929.89992      0             -773.57424      1.9784188    
SHAKE stats (type/ave/delta/count) on step 7290000
Bond:   1   1         1.07225e-06     4000
Angle:  1   109.47    9.78526e-05     2000
   7290000   95.808873     -930.54969      0             -774.02492     -4.1149717    
SHAKE stats (type/ave/delta/count) on step 7300000
Bond:   1   1         1.20075e-06     4000
Angle:  1   109.47    9.11595e-05     2000
   7300000   93.91022      -933.05856      0             -779.63565     -13.294868    
SHAKE stats (type/ave/delta/count) on step 7310000
Bond:   1   1         1.62106e-06     4000
Angle:  1   109.47    0.000136437     2000
   7310000   95.7847       -928.64426      0             -772.15898      4.3680666    
SHAKE stats (type/ave/delta/count) on step 7320000
Bond:   1   1         1.21177e-06     4000
Angle:  1   109.47    9.1117e-05      2000
   7320000   93.209601     -924.82984      0             -772.55154     -8.1765888    
SHAKE stats (type/ave/delta/count) on step 7330000
Bond:   1   1         1.25439e-06     4000
Angle:  1   109.47    9.45554e-05     2000
   7330000   93.674528     -926.01085      0             -772.97299     -3.586277     
SHAKE stats (type/ave/delta/count) on step 7340000
Bond:   1   1         1.36718e-06     4000
Angle:  1   109.47    0.000122645     2000
   7340000   95.348509     -926.36527      0             -770.5926      -4.3835113    
SHAKE stats (type/ave/delta/count) on step 7350000
Bond:   1   1         1.06828e-06     4000
Angle:  1   109.47    9.72318e-05     2000
   7350000   95.56215      -930.88062      0             -774.75892     -8.6026516    
SHAKE stats (type/ave/delta/count) on step 7360000
Bond:   1   1         1.28239e-06     4000
Angle:  1   109.47    0.000100184     2000
   7360000   96.061741     -928.58524      0             -771.64735     -15.251016    
SHAKE stats (type/ave/delta/count) on step 7370000
Bond:   1   1         1.24608e-06     4000
Angle:  1   109.47    9.13593e-05     2000
   7370000   94.635022     -931.5936       0             -776.98657     -12.053559    
SHAKE stats (type/ave/delta/count) on step 7380000
Bond:   1   1         1.23536e-06     4000
Angle:  1   109.47    0.00011724      2000
   7380000   93.096298     -928.19401      0             -776.10082     -5.2545356    
SHAKE stats (type/ave/delta/count) on step 7390000
Bond:   1   1         1.03757e-06     4000
Angle:  1   109.47    9.60874e-05     2000
   7390000   93.993003     -925.37076      0             -771.81261     -19.519792    
SHAKE stats (type/ave/delta/count) on step 7400000
Bond:   1   1         1.1324e-06      4000
Angle:  1   109.47    9.16043e-05     2000
   7400000   95.101054     -932.84715      0             -777.47876     -14.413811    
SHAKE stats (type/ave/delta/count) on step 7410000
Bond:   1   1         1.20394e-06     4000
Angle:  1   109.47    8.81273e-05     2000
   7410000   93.681741     -925.01277      0             -771.96314     -6.9048617    
SHAKE stats (type/ave/delta/count) on step 7420000
Bond:   1   1         1.71265e-06     4000
Angle:  1   109.47    0.000147572     2000
   7420000   95.667738     -926.18432      0             -769.89012     -3.8350594    
SHAKE stats (type/ave/delta/count) on step 7430000
Bond:   1   1         1.56581e-06     4000
Angle:  1   109.47    0.000126418     2000
   7430000   95.914793     -924.44865      0             -767.75083     -10.409668    
SHAKE stats (type/ave/delta/count) on step 7440000
Bond:   1   1         1.52976e-06     4000
Angle:  1   109.47    9.88867e-05     2000
   7440000   96.63639      -924.55087      0             -766.67417      11.306914    
SHAKE stats (type/ave/delta/count) on step 7450000
Bond:   1   1         1.18817e-06     4000
Angle:  1   109.47    0.000118143     2000
   7450000   94.39856      -923.40477      0             -769.18406     -6.383853     
SHAKE stats (type/ave/delta/count) on step 7460000
Bond:   1   1         1.89997e-06     4000
Angle:  1   109.47    0.000129279     2000
   7460000   96.070842     -928.01876      0             -771.066       -12.29439     
SHAKE stats (type/ave/delta/count) on step 7470000
Bond:   1   1         1.2179e-06      4000
Angle:  1   109.47    0.00010085      2000
   7470000   94.159946     -924.6942       0             -770.86331     -1.7192713    
SHAKE stats (type/ave/delta/count) on step 7480000
Bond:   1   1         1.12301e-06     4000
Angle:  1   109.47    9.60359e-05     2000
   7480000   93.500157     -922.27305      0             -769.52007     -6.3881015    
SHAKE stats (type/ave/delta/count) on step 7490000
Bond:   1   1         1.17915e-06     4000
Angle:  1   109.47    9.01354e-05     2000
   7490000   94.588743     -924.556        0             -770.02458     -1.545229     
SHAKE stats (type/ave/delta/count) on step 7500000
Bond:   1   1         1.64374e-06     4000
Angle:  1   109.47    0.000118785     2000
   7500000   96.166451     -929.20485      0             -772.09589     -1.6749349    
SHAKE stats (type/ave/delta/count) on step 7510000
Bond:   1   1         1.24388e-06     4000
Angle:  1   109.47    9.80708e-05     2000
   7510000   94.036212     -925.81065      0             -772.1819      -7.2778239    
SHAKE stats (type/ave/delta/count) on step 7520000
Bond:   1   1         1.50837e-06     4000
Angle:  1   109.47    0.000114748     2000
   7520000   95.703427     -930.24501      0             -773.8925      -7.7731607    
SHAKE stats (type/ave/delta/count) on step 7530000
Bond:   1   1         1.53733e-06     4000
Angle:  1   109.47    0.00011762      2000
   7530000   94.292945     -927.53945      0             -773.49127     -5.284556     
SHAKE stats (type/ave/delta/count) on step 7540000
Bond:   1   1         1.25904e-06     4000
Angle:  1   109.47    0.000106497     2000
   7540000   95.913261     -928.51173      0             -771.81641     -9.5390424    
SHAKE stats (type/ave/delta/count) on step 7550000
Bond:   1   1         1.22384e-06     4000
Angle:  1   109.47    0.00010243      2000
   7550000   95.383083     -925.07061      0             -769.24145     -5.430176     
SHAKE stats (type/ave/delta/count) on step 7560000
Bond:   1   1         1.15767e-06     4000
Angle:  1   109.47    8.90733e-05     2000
   7560000   94.502253     -927.03863      0             -772.6485      -1.1613721    
SHAKE stats (type/ave/delta/count) on step 7570000
Bond:   1   1         1.22544e-06     4000
Angle:  1   109.47    8.95205e-05     2000
   7570000   94.945662     -926.90977      0             -771.79525      2.6740503    
SHAKE stats (type/ave/delta/count) on step 7580000
Bond:   1   1         1.5696e-06      4000
Angle:  1   109.47    0.000127881     2000
   7580000   93.841367     -928.62549      0             -775.31507     -7.7040119    
SHAKE stats (type/ave/delta/count) on step 7590000
Bond:   1   1         1.33402e-06     4000
Angle:  1   109.47    8.68428e-05     2000
   7590000   95.039026     -923.83052      0             -768.56347     -21.670808    
SHAKE stats (type/ave/delta/count) on step 7600000
Bond:   1   1         1.55166e-06     4000
Angle:  1   109.47    0.000134594     2000
   7600000   92.241664     -928.03258      0             -777.33562     -11.647278    
SHAKE stats (type/ave/delta/count) on step 7610000
Bond:   1   1         1.37234e-06     4000
Angle:  1   109.47    9.71962e-05     2000
   7610000   93.161688     -932.24877      0             -780.04875     -6.4829673    
SHAKE stats (type/ave/delta/count) on step 7620000
Bond:   1   1         1.46464e-06     4000
Angle:  1   109.47    0.000115297     2000
   7620000   94.343702     -929.83725      0             -775.70615     -8.1761067    
SHAKE stats (type/ave/delta/count) on step 7630000
Bond:   1   1         1.28165e-06     4000
Angle:  1   109.47    0.000105489     2000
   7630000   94.672881     -924.25994      0             -769.59106     -0.6624417    
SHAKE stats (type/ave/delta/count) on step 7640000
Bond:   1   1         1.88618e-06     4000
Angle:  1   109.47    0.00012921      2000
   7640000   94.586206     -932.96369      0             -778.43641     -9.0861018    
SHAKE stats (type/ave/delta/count) on step 7650000
Bond:   1   1         1.3297e-06      4000
Angle:  1   109.47    9.63794e-05     2000
   7650000   96.336633     -922.92933      0             -765.54234     -7.3657204    
SHAKE stats (type/ave/delta/count) on step 7660000
Bond:   1   1         1.33825e-06     4000
Angle:  1   109.47    0.000102583     2000
   7660000   93.828691     -929.17936      0             -775.88965     -3.9722138    
SHAKE stats (type/ave/delta/count) on step 7670000
Bond:   1   1         1.53595e-06     4000
Angle:  1   109.47    0.000102469     2000
   7670000   94.357628     -930.91937      0             -776.76552     -8.0923317    
SHAKE stats (type/ave/delta/count) on step 7680000
Bond:   1   1         1.39306e-06     4000
Angle:  1   109.47    9.40145e-05     2000
   7680000   94.27303      -931.28165      0             -777.26601     -7.6529023    
SHAKE stats (type/ave/delta/count) on step 7690000
Bond:   1   1         1.08434e-06     4000
Angle:  1   109.47    9.4427e-05      2000
   7690000   95.763533     -933.60181      0             -777.15111     -4.2546963    
SHAKE stats (type/ave/delta/count) on step 7700000
Bond:   1   1         1.72986e-06     4000
Angle:  1   109.47    0.000120957     2000
   7700000   94.205734     -926.78954      0             -772.88385     -6.825397     
SHAKE stats (type/ave/delta/count) on step 7710000
Bond:   1   1         1.306e-06       4000
Angle:  1   109.47    8.88735e-05     2000
   7710000   94.118348     -929.10062      0             -775.33769     -7.3767854    
SHAKE stats (type/ave/delta/count) on step 7720000
Bond:   1   1         1.33165e-06     4000
Angle:  1   109.47    9.58846e-05     2000
   7720000   94.534344     -922.59846      0             -768.15591      1.2539572    
SHAKE stats (type/ave/delta/count) on step 7730000
Bond:   1   1         1.35269e-06     4000
Angle:  1   109.47    0.000105671     2000
   7730000   94.463106     -931.40385      0             -777.07768     -3.4655601    
SHAKE stats (type/ave/delta/count) on step 7740000
Bond:   1   1         1.03973e-06     4000
Angle:  1   109.47    9.38627e-05     2000
   7740000   94.129521     -931.81136      0             -778.03017     -7.2542871    
SHAKE stats (type/ave/delta/count) on step 7750000
Bond:   1   1         1.36525e-06     4000
Angle:  1   109.47    0.00010114      2000
   7750000   95.856349     -930.63974      0             -774.03741     -10.376402    
SHAKE stats (type/ave/delta/count) on step 7760000
Bond:   1   1         1.6747e-06      4000
Angle:  1   109.47    0.000133137     2000
   7760000   98.137907     -928.56343      0             -768.23367      6.6228296    
SHAKE stats (type/ave/delta/count) on step 7770000
Bond:   1   1         1.26639e-06     4000
Angle:  1   109.47    8.95913e-05     2000
   7770000   94.896892     -928.13793      0             -773.10308     -3.8263427    
SHAKE stats (type/ave/delta/count) on step 7780000
Bond:   1   1         1.48897e-06     4000
Angle:  1   109.47    0.000121575     2000
   7780000   96.446582     -922.86051      0             -765.2939      -11.518263    
SHAKE stats (type/ave/delta/count) on step 7790000
Bond:   1   1         1.29192e-06     4000
Angle:  1   109.47    9.49922e-05     2000
   7790000   94.580227     -924.68558      0             -770.16807     -0.22203643   
SHAKE stats (type/ave/delta/count) on step 7800000
Bond:   1   1         1.15762e-06     4000
Angle:  1   109.47    9.59145e-05     2000
   7800000   96.073584     -927.534        0             -770.57677     -11.550941    
SHAKE stats (type/ave/delta/count) on step 7810000
Bond:   1   1         1.25477e-06     4000
Angle:  1   109.47    9.01179e-05     2000
   7810000   94.461668     -922.92719      0             -768.60337     -12.678272    
SHAKE stats (type/ave/delta/count) on step 7820000
Bond:   1   1         1.66292e-06     4000
Angle:  1   109.47    0.000116007     2000
   7820000   95.666964     -922.11147      0             -765.81854     -2.2651242    
SHAKE stats (type/ave/delta/count) on step 7830000
Bond:   1   1         1.06358e-06     4000
Angle:  1   109.47    9.35622e-05     2000
   7830000   93.708852     -931.20012      0             -778.10619     -10.384809    
SHAKE stats (type/ave/delta/count) on step 7840000
Bond:   1   1         1.10438e-06     4000
Angle:  1   109.47    9.4571e-05      2000
   7840000   93.737648     -926.42441      0             -773.28344     -11.325195    
SHAKE stats (type/ave/delta/count) on step 7850000
Bond:   1   1         1.32912e-06     4000
Angle:  1   109.47    0.000107168     2000
   7850000   94.159817     -926.94562      0             -773.11494     -10.921756    
SHAKE stats (type/ave/delta/count) on step 7860000
Bond:   1   1         1.1412e-06      4000
Angle:  1   109.47    0.000127698     2000
   7860000   94.985366     -925.76321      0             -770.58382     -10.734665    
SHAKE stats (type/ave/delta/count) on step 7870000
Bond:   1   1         1.29065e-06     4000
Angle:  1   109.47    9.10791e-05     2000
   7870000   92.384963     -932.29606      0             -781.36499     -4.4380241    
SHAKE stats (type/ave/delta/count) on step 7880000
Bond:   1   1         1.55737e-06     4000
Angle:  1   109.47    0.000112846     2000
   7880000   94.686103     -924.3211       0             -769.63062      0.29888035   
SHAKE stats (type/ave/delta/count) on step 7890000
Bond:   1   1         1.6039e-06      4000
Angle:  1   109.47    0.000104317     2000
   7890000   96.183584     -926.24693      0             -769.10999     -13.63753     
SHAKE stats (type/ave/delta/count) on step 7900000
Bond:   1   1         1.08718e-06     4000
Angle:  1   109.47    0.000100737     2000
   7900000   95.330572     -930.77772      0             -775.03436     -6.1627409    
SHAKE stats (type/ave/delta/count) on step 7910000
Bond:   1   1         1.08901e-06     4000
Angle:  1   109.47    9.27782e-05     2000
   7910000   96.657664     -929.13101      0             -771.21955      1.134135     
SHAKE stats (type/ave/delta/count) on step 7920000
Bond:   1   1         1.39859e-06     4000
Angle:  1   109.47    0.00010571      2000
   7920000   94.228729     -926.88691      0             -772.94365     -6.0769347    
SHAKE stats (type/ave/delta/count) on step 7930000
Bond:   1   1         1.52468e-06     4000
Angle:  1   109.47    0.000104486     2000
   7930000   97.525504     -926.67881      0             -767.34955     -6.7738126    
SHAKE stats (type/ave/delta/count) on step 7940000
Bond:   1   1         1.23563e-06     4000
Angle:  1   109.47    9.18764e-05     2000
   7940000   93.801875     -926.12131      0             -772.87541     -9.0129869    
SHAKE stats (type/ave/delta/count) on step 7950000
Bond:   1   1         1.16247e-06     4000
Angle:  1   109.47    0.000107527     2000
   7950000   94.444823     -926.7318       0             -772.4355      -1.122094     
SHAKE stats (type/ave/delta/count) on step 7960000
Bond:   1   1         1.23455e-06     4000
Angle:  1   109.47    0.000101508     2000
   7960000   95.013808     -929.18627      0             -773.96041     -0.083440174  
SHAKE stats (type/ave/delta/count) on step 7970000
Bond:   1   1         1.19097e-06     4000
Angle:  1   109.47    9.4941e-05      2000
   7970000   95.509845     -929.05982      0             -773.02358     -5.200221     
SHAKE stats (type/ave/delta/count) on step 7980000
Bond:   1   1         1.28682e-06     4000
Angle:  1   109.47    0.000105345     2000
   7980000   95.425893     -925.2582       0             -769.35911     -3.5841282    
SHAKE stats (type/ave/delta/count) on step 7990000
Bond:   1   1         1.20095e-06     4000
Angle:  1   109.47    9.70596e-05     2000
   7990000   94.193947     -922.45416      0             -768.56772     -7.7372661    
SHAKE stats (type/ave/delta/count) on step 8000000
Bond:   1   1         1.24443e-06     4000
Angle:  1   109.47    0.00010691      2000
   8000000   93.811305     -923.56821      0             -770.3069      -13.122542    
SHAKE stats (type/ave/delta/count) on step 8010000
Bond:   1   1         1.1891e-06      4000
Angle:  1   109.47    9.61754e-05     2000
   8010000   91.699526     -926.08134      0             -776.27009     -11.46984     
SHAKE stats (type/ave/delta/count) on step 8020000
Bond:   1   1         1.23289e-06     4000
Angle:  1   109.47    9.6362e-05      2000
   8020000   94.543925     -927.1787       0             -772.7205      -15.355761    
SHAKE stats (type/ave/delta/count) on step 8030000
Bond:   1   1         1.03154e-06     4000
Angle:  1   109.47    9.251e-05       2000
   8030000   95.397198     -926.81606      0             -770.96384     -12.219723    
SHAKE stats (type/ave/delta/count) on step 8040000
Bond:   1   1         1.59325e-06     4000
Angle:  1   109.47    0.000131657     2000
   8040000   93.225742     -925.94084      0             -773.63618     -10.21054     
SHAKE stats (type/ave/delta/count) on step 8050000
Bond:   1   1         1.15834e-06     4000
Angle:  1   109.47    9.82079e-05     2000
   8050000   97.920214     -928.81385      0             -768.83974     -2.7147902    
SHAKE stats (type/ave/delta/count) on step 8060000
Bond:   1   1         1.14715e-06     4000
Angle:  1   109.47    0.000101113     2000
   8060000   95.171688     -924.9135       0             -769.42971     -11.073216    
SHAKE stats (type/ave/delta/count) on step 8070000
Bond:   1   1         1.46863e-06     4000
Angle:  1   109.47    0.000106889     2000
   8070000   96.228205     -927.32782      0             -770.11797      1.705833     
SHAKE stats (type/ave/delta/count) on step 8080000
Bond:   1   1         1.17387e-06     4000
Angle:  1   109.47    9.47578e-05     2000
   8080000   96.149245     -922.76319      0             -765.68234     -12.801446    
SHAKE stats (type/ave/delta/count) on step 8090000
Bond:   1   1         1.33759e-06     4000
Angle:  1   109.47    9.59872e-05     2000
   8090000   94.808367     -925.38706      0             -770.49683     -11.34876     
SHAKE stats (type/ave/delta/count) on step 8100000
Bond:   1   1         1.18688e-06     4000
Angle:  1   109.47    8.84244e-05     2000
   8100000   94.123036     -932.28677      0             -778.51618      1.2382519    
SHAKE stats (type/ave/delta/count) on step 8110000
Bond:   1   1         1.39018e-06     4000
Angle:  1   109.47    9.18844e-05     2000
   8110000   95.882225     -923.95487      0             -767.31026     -11.271097    
SHAKE stats (type/ave/delta/count) on step 8120000
Bond:   1   1         1.20347e-06     4000
Angle:  1   109.47    9.57013e-05     2000
   8120000   93.62989      -925.27145      0             -772.30653     -11.017734    
SHAKE stats (type/ave/delta/count) on step 8130000
Bond:   1   1         1.21134e-06     4000
Angle:  1   109.47    0.00010009      2000
   8130000   91.889562     -929.16059      0             -779.03887     -7.2506309    
SHAKE stats (type/ave/delta/count) on step 8140000
Bond:   1   1         1.17446e-06     4000
Angle:  1   109.47    8.90579e-05     2000
   8140000   95.29147      -927.81113      0             -772.13165      3.412567     
SHAKE stats (type/ave/delta/count) on step 8150000
Bond:   1   1         1.2916e-06      4000
Angle:  1   109.47    0.000108325     2000
   8150000   95.01588      -929.50425      0             -774.27501     -10.125548    
SHAKE stats (type/ave/delta/count) on step 8160000
Bond:   1   1         1.06305e-06     4000
Angle:  1   109.47    9.4007e-05      2000
   8160000   95.23873      -925.60068      0             -770.00736     -4.5682849    
SHAKE stats (type/ave/delta/count) on step 8170000
Bond:   1   1         1.13593e-06     4000
Angle:  1   109.47    8.89013e-05     2000
   8170000   95.382789     -926.84401      0             -771.01534     -5.2950543    
SHAKE stats (type/ave/delta/count) on step 8180000
Bond:   1   1         1.12076e-06     4000
Angle:  1   109.47    9.50395e-05     2000
   8180000   96.542039     -925.09231      0             -767.36975     -4.1269703    
SHAKE stats (type/ave/delta/count) on step 8190000
Bond:   1   1         1.1148e-06      4000
Angle:  1   109.47    9.98475e-05     2000
   8190000   96.771376     -926.80473      0             -768.7075       8.9734085    
SHAKE stats (type/ave/delta/count) on step 8200000
Bond:   1   1         1.24988e-06     4000
Angle:  1   109.47    9.3994e-05      2000
   8200000   93.50858      -932.38656      0             -779.61982     -5.8890992    
SHAKE stats (type/ave/delta/count) on step 8210000
Bond:   1   1         1.17241e-06     4000
Angle:  1   109.47    9.44903e-05     2000
   8210000   94.561358     -931.02299      0             -776.53631     -4.2101408    
SHAKE stats (type/ave/delta/count) on step 8220000
Bond:   1   1         1.40101e-06     4000
Angle:  1   109.47    0.00010601      2000
   8220000   94.681721     -929.42679      0             -774.74346     -14.197052    
SHAKE stats (type/ave/delta/count) on step 8230000
Bond:   1   1         1.03105e-06     4000
Angle:  1   109.47    8.63724e-05     2000
   8230000   93.483552     -923.94924      0             -771.22338      9.3270192    
SHAKE stats (type/ave/delta/count) on step 8240000
Bond:   1   1         1.12482e-06     4000
Angle:  1   109.47    8.81304e-05     2000
   8240000   93.594702     -932.86668      0             -779.95925     -11.21829     
SHAKE stats (type/ave/delta/count) on step 8250000
Bond:   1   1         1.31208e-06     4000
Angle:  1   109.47    8.84462e-05     2000
   8250000   96.494878     -935.25033      0             -777.60481     -3.9873513    
SHAKE stats (type/ave/delta/count) on step 8260000
Bond:   1   1         1.32152e-06     4000
Angle:  1   109.47    9.07187e-05     2000
   8260000   94.453283     -925.07592      0             -770.7658      -16.263777    
SHAKE stats (type/ave/delta/count) on step 8270000
Bond:   1   1         1.1832e-06      4000
Angle:  1   109.47    0.000117983     2000
   8270000   94.080895     -930.03688      0             -776.33513     -14.563489    
SHAKE stats (type/ave/delta/count) on step 8280000
Bond:   1   1         1.02994e-06     4000
Angle:  1   109.47    9.45161e-05     2000
   8280000   94.610433     -929.26179      0             -774.69493     -5.1312459    
SHAKE stats (type/ave/delta/count) on step 8290000
Bond:   1   1         1.16691e-06     4000
Angle:  1   109.47    9.90105e-05     2000
   8290000   95.016419     -928.20036      0             -772.97023     -9.5544873    
SHAKE stats (type/ave/delta/count) on step 8300000
Bond:   1   1         1.5008e-06      4000
Angle:  1   109.47    9.11767e-05     2000
   8300000   93.61063      -927.65307      0             -774.71961      1.3884315    
SHAKE stats (type/ave/delta/count) on step 8310000
Bond:   1   1         1.19096e-06     4000
Angle:  1   109.47    0.000102193     2000
   8310000   95.637151     -929.10759      0             -772.86336     -6.0290483    
SHAKE stats (type/ave/delta/count) on step 8320000
Bond:   1   1         1.28842e-06     4000
Angle:  1   109.47    8.73557e-05     2000
   8320000   95.95915      -923.7668       0             -766.99652     -3.9940736    
SHAKE stats (type/ave/delta/count) on step 8330000
Bond:   1   1         1.20471e-06     4000
Angle:  1   109.47    9.88982e-05     2000
   8330000   95.70037      -924.75493      0             -768.40742     -7.3568297    
SHAKE stats (type/ave/delta/count) on step 8340000
Bond:   1   1         1.07398e-06     4000
Angle:  1   109.47    9.50482e-05     2000
   8340000   95.369765     -927.85836      0             -772.05096      1.1224215    
SHAKE stats (type/ave/delta/count) on step 8350000
Bond:   1   1         1.10191e-06     4000
Angle:  1   109.47    9.81473e-05     2000
   8350000   95.1744       -924.76649      0             -769.27826     -3.6977652    
SHAKE stats (type/ave/delta/count) on step 8360000
Bond:   1   1         1.0918e-06      4000
Angle:  1   109.47    9.29209e-05     2000
   8360000   94.791938     -927.58612      0             -772.72273     -11.322343    
SHAKE stats (type/ave/delta/count) on step 8370000
Bond:   1   1         1.33035e-06     4000
Angle:  1   109.47    8.55657e-05     2000
   8370000   95.361581     -929.04342      0             -773.2494      -8.2151848    
SHAKE stats (type/ave/delta/count) on step 8380000
Bond:   1   1         1.88421e-06     4000
Angle:  1   109.47    0.000139641     2000
   8380000   93.981601     -926.03378      0             -772.49426     -2.8919421    
SHAKE stats (type/ave/delta/count) on step 8390000
Bond:   1   1         1.9543e-06      4000
Angle:  1   109.47    0.000156331     2000
   8390000   95.375426     -930.50647      0             -774.68983     -7.5710216    
SHAKE stats (type/ave/delta/count) on step 8400000
Bond:   1   1         1.1195e-06      4000
Angle:  1   109.47    0.000103566     2000
   8400000   96.027494     -928.0137       0             -771.13176     -1.8564589    
SHAKE stats (type/ave/delta/count) on step 8410000
Bond:   1   1         1.59212e-06     4000
Angle:  1   109.47    0.000121331     2000
   8410000   94.330274     -924.71929      0             -770.61014     -4.4431436    
SHAKE stats (type/ave/delta/count) on step 8420000
Bond:   1   1         1.10078e-06     4000
Angle:  1   109.47    9.9846e-05      2000
   8420000   95.474033     -929.41642      0             -773.43868      4.0547485    
SHAKE stats (type/ave/delta/count) on step 8430000
Bond:   1   1         1.07384e-06     4000
Angle:  1   109.47    9.74727e-05     2000
   8430000   95.694266     -924.10661      0             -767.76908     -3.1538336    
SHAKE stats (type/ave/delta/count) on step 8440000
Bond:   1   1         1.52121e-06     4000
Angle:  1   109.47    0.000126369     2000
   8440000   95.389582     -928.30494      0             -772.46518     -11.17475     
SHAKE stats (type/ave/delta/count) on step 8450000
Bond:   1   1         1.35209e-06     4000
Angle:  1   109.47    0.000102202     2000
   8450000   93.965064     -934.02656      0             -780.51405     -10.659442    
SHAKE stats (type/ave/delta/count) on step 8460000
Bond:   1   1         1.67993e-06     4000
Angle:  1   109.47    0.000116562     2000
   8460000   94.218109     -932.72611      0             -778.8002      -15.200718    
SHAKE stats (type/ave/delta/count) on step 8470000
Bond:   1   1         1.58612e-06     4000
Angle:  1   109.47    0.000106369     2000
   8470000   95.728596     -926.51525      0             -770.12163     -9.7264126    
SHAKE stats (type/ave/delta/count) on step 8480000
Bond:   1   1         1.3455e-06      4000
Angle:  1   109.47    9.07705e-05     2000
   8480000   93.823105     -928.18435      0             -774.90376     -9.4827765    
SHAKE stats (type/ave/delta/count) on step 8490000
Bond:   1   1         1.3612e-06      4000
Angle:  1   109.47    9.0469e-05      2000
   8490000   92.55565      -928.74507      0             -777.53515      0.52846205   
SHAKE stats (type/ave/delta/count) on step 8500000
Bond:   1   1         1.29848e-06     4000
Angle:  1   109.47    0.000115147     2000
   8500000   92.639957     -925.56968      0             -774.22203     -11.071065    
SHAKE stats (type/ave/delta/count) on step 8510000
Bond:   1   1         1.53704e-06     4000
Angle:  1   109.47    9.17555e-05     2000
   8510000   94.508913     -930.19269      0             -775.79168     -11.633271    
SHAKE stats (type/ave/delta/count) on step 8520000
Bond:   1   1         1.56423e-06     4000
Angle:  1   109.47    0.000144069     2000
   8520000   94.415607     -926.95275      0             -772.70418     -0.83391284   
SHAKE stats (type/ave/delta/count) on step 8530000
Bond:   1   1         1.03978e-06     4000
Angle:  1   109.47    8.97046e-05     2000
   8530000   94.00975      -927.43422      0             -773.84871     -11.159262    
SHAKE stats (type/ave/delta/count) on step 8540000
Bond:   1   1         1.38333e-06     4000
Angle:  1   109.47    0.000140655     2000
   8540000   93.678284     -929.81533      0             -776.77134     -4.4016184    
SHAKE stats (type/ave/delta/count) on step 8550000
Bond:   1   1         1.19079e-06     4000
Angle:  1   109.47    9.05856e-05     2000
   8550000   93.894852     -923.79326      0             -770.39546     -10.131858    
SHAKE stats (type/ave/delta/count) on step 8560000
Bond:   1   1         1.10701e-06     4000
Angle:  1   109.47    8.91693e-05     2000
   8560000   93.871197     -923.83468      0             -770.47552     -5.0364187    
SHAKE stats (type/ave/delta/count) on step 8570000
Bond:   1   1         1.76811e-06     4000
Angle:  1   109.47    0.000130798     2000
   8570000   92.765979     -929.15541      0             -777.60187     -7.2279774    
SHAKE stats (type/ave/delta/count) on step 8580000
Bond:   1   1         1.15064e-06     4000
Angle:  1   109.47    0.000109573     2000
   8580000   95.473301     -928.64798      0             -772.67144     -9.9173183    
SHAKE stats (type/ave/delta/count) on step 8590000
Bond:   1   1         1.36616e-06     4000
Angle:  1   109.47    0.000106396     2000
   8590000   97.675968     -927.77041      0             -768.19533     -12.30924     
SHAKE stats (type/ave/delta/count) on step 8600000
Bond:   1   1         1.27382e-06     4000
Angle:  1   109.47    9.10462e-05     2000
   8600000   96.075409     -923.8557       0             -766.89548     -9.8167933    
SHAKE stats (type/ave/delta/count) on step 8610000
Bond:   1   1         1.27942e-06     4000
Angle:  1   109.47    0.000105168     2000
   8610000   92.21257      -937.42872      0             -786.77929     -0.62584012   
SHAKE stats (type/ave/delta/count) on step 8620000
Bond:   1   1         1.14874e-06     4000
Angle:  1   109.47    9.24749e-05     2000
   8620000   95.433814     -927.31365      0             -771.40162     -3.083526     
SHAKE stats (type/ave/delta/count) on step 8630000
Bond:   1   1         1.88533e-06     4000
Angle:  1   109.47    0.000148716     2000
   8630000   95.451137     -925.72811      0             -769.78778     -8.9902007    
SHAKE stats (type/ave/delta/count) on step 8640000
Bond:   1   1         1.29225e-06     4000
Angle:  1   109.47    0.00010234      2000
   8640000   94.429503     -926.54383      0             -772.27256     -2.8327396    
SHAKE stats (type/ave/delta/count) on step 8650000
Bond:   1   1         1.09596e-06     4000
Angle:  1   109.47    9.34114e-05     2000
   8650000   96.537304     -930.15705      0             -772.44222     -4.3041448    
SHAKE stats (type/ave/delta/count) on step 8660000
Bond:   1   1         1.1057e-06      4000
Angle:  1   109.47    8.64013e-05     2000
   8660000   94.350757     -922.56042      0             -768.4178      -6.6103536    
SHAKE stats (type/ave/delta/count) on step 8670000
Bond:   1   1         1.08296e-06     4000
Angle:  1   109.47    9.95831e-05     2000
   8670000   96.788188     -927.97492      0             -769.85022     -3.8062544    
SHAKE stats (type/ave/delta/count) on step 8680000
Bond:   1   1         1.46076e-06     4000
Angle:  1   109.47    0.000118581     2000
   8680000   93.719163     -924.8951       0             -771.78432     -0.90020922   
SHAKE stats (type/ave/delta/count) on step 8690000
Bond:   1   1         1.27712e-06     4000
Angle:  1   109.47    9.8039e-05      2000
   8690000   93.529961     -929.84042      0             -777.03875     -3.2779643    
SHAKE stats (type/ave/delta/count) on step 8700000
Bond:   1   1         1.34846e-06     4000
Angle:  1   109.47    8.85667e-05     2000
   8700000   93.795799     -925.10338      0             -771.8674      -7.4894686    
SHAKE stats (type/ave/delta/count) on step 8710000
Bond:   1   1         1.69836e-06     4000
Angle:  1   109.47    0.00013051      2000
   8710000   95.016619     -927.09638      0             -771.86593      0.40910186   
SHAKE stats (type/ave/delta/count) on step 8720000
Bond:   1   1         1.27708e-06     4000
Angle:  1   109.47    9.50008e-05     2000
   8720000   93.392408     -923.21528      0             -770.63833     -7.402151     
SHAKE stats (type/ave/delta/count) on step 8730000
Bond:   1   1         1.27176e-06     4000
Angle:  1   109.47    0.000102993     2000
   8730000   93.574604     -928.45117      0             -775.57656      5.9335796    
SHAKE stats (type/ave/delta/count) on step 8740000
Bond:   1   1         1.51405e-06     4000
Angle:  1   109.47    0.000115871     2000
   8740000   93.310999     -934.00826      0             -781.56431     -10.700816    
SHAKE stats (type/ave/delta/count) on step 8750000
Bond:   1   1         1.07611e-06     4000
Angle:  1   109.47    8.71044e-05     2000
   8750000   97.22648      -927.62595      0             -768.78521     -6.076297     
SHAKE stats (type/ave/delta/count) on step 8760000
Bond:   1   1         1.1158e-06      4000
Angle:  1   109.47    9.11164e-05     2000
   8760000   95.849865     -928.48255      0             -771.89081     -1.4252303    
SHAKE stats (type/ave/delta/count) on step 8770000
Bond:   1   1         1.17008e-06     4000
Angle:  1   109.47    8.91056e-05     2000
   8770000   94.65285      -924.0284       0             -769.39224     -13.787469    
SHAKE stats (type/ave/delta/count) on step 8780000
Bond:   1   1         1.27699e-06     4000
Angle:  1   109.47    9.0594e-05      2000
   8780000   93.719914     -926.08125      0             -772.96925     -12.580409    
SHAKE stats (type/ave/delta/count) on step 8790000
Bond:   1   1         1.33963e-06     4000
Angle:  1   109.47    0.000141282     2000
   8790000   93.177541     -926.94451      0             -774.71859     -8.3296684    
SHAKE stats (type/ave/delta/count) on step 8800000
Bond:   1   1         1.08058e-06     4000
Angle:  1   109.47    8.97495e-05     2000
   8800000   92.36549      -926.7157       0             -775.81644     -8.9297969    
SHAKE stats (type/ave/delta/count) on step 8810000
Bond:   1   1         1.24886e-06     4000
Angle:  1   109.47    0.000104091     2000
   8810000   94.613022     -928.87679      0             -774.3057       7.5069565    
SHAKE stats (type/ave/delta/count) on step 8820000
Bond:   1   1         1.49224e-06     4000
Angle:  1   109.47    0.000128736     2000
   8820000   95.799372     -926.42483      0             -769.91558     -16.200515    
SHAKE stats (type/ave/delta/count) on step 8830000
Bond:   1   1         1.39618e-06     4000
Angle:  1   109.47    0.000108349     2000
   8830000   94.400654     -925.17038      0             -770.94624     -0.63951559   
SHAKE stats (type/ave/delta/count) on step 8840000
Bond:   1   1         1.59737e-06     4000
Angle:  1   109.47    0.000116228     2000
   8840000   94.399423     -927.1574       0             -772.93528     -3.4834407    
SHAKE stats (type/ave/delta/count) on step 8850000
Bond:   1   1         1.18204e-06     4000
Angle:  1   109.47    0.000100787     2000
   8850000   93.791253     -927.91384      0             -774.68529     -11.154577    
SHAKE stats (type/ave/delta/count) on step 8860000
Bond:   1   1         1.24055e-06     4000
Angle:  1   109.47    8.74419e-05     2000
   8860000   94.148107     -930.25549      0             -776.44394     -0.84726239   
SHAKE stats (type/ave/delta/count) on step 8870000
Bond:   1   1         1.26703e-06     4000
Angle:  1   109.47    0.000101621     2000
   8870000   93.61258      -929.52777      0             -776.59112     -9.5238507    
SHAKE stats (type/ave/delta/count) on step 8880000
Bond:   1   1         1.25857e-06     4000
Angle:  1   109.47    9.86874e-05     2000
   8880000   95.807207     -925.70883      0             -769.18678     -12.896669    
SHAKE stats (type/ave/delta/count) on step 8890000
Bond:   1   1         1.0887e-06      4000
Angle:  1   109.47    0.000100916     2000
   8890000   95.290848     -925.89769      0             -770.21923     -1.277193     
SHAKE stats (type/ave/delta/count) on step 8900000
Bond:   1   1         1.61986e-06     4000
Angle:  1   109.47    0.000115006     2000
   8900000   96.462531     -919.28031      0             -761.68764     -9.6919036    
SHAKE stats (type/ave/delta/count) on step 8910000
Bond:   1   1         1.11603e-06     4000
Angle:  1   109.47    9.36021e-05     2000
   8910000   94.633218     -939.11295      0             -784.50887      2.8933419    
SHAKE stats (type/ave/delta/count) on step 8920000
Bond:   1   1         1.18342e-06     4000
Angle:  1   109.47    9.15901e-05     2000
   8920000   96.810783     -926.35065      0             -768.18904     -2.7718263    
SHAKE stats (type/ave/delta/count) on step 8930000
Bond:   1   1         1.38527e-06     4000
Angle:  1   109.47    0.000123895     2000
   8930000   93.327222     -932.71141      0             -780.24096     -12.739961    
SHAKE stats (type/ave/delta/count) on step 8940000
Bond:   1   1         1.31581e-06     4000
Angle:  1   109.47    9.13128e-05     2000
   8940000   95.370052     -928.82748      0             -773.01962     -7.7016108    
SHAKE stats (type/ave/delta/count) on step 8950000
Bond:   1   1         1.36141e-06     4000
Angle:  1   109.47    9.64646e-05     2000
   8950000   93.820687     -925.81645      0             -772.53981     -7.2363912    
SHAKE stats (type/ave/delta/count) on step 8960000
Bond:   1   1         1.49659e-06     4000
Angle:  1   109.47    8.87745e-05     2000
   8960000   94.588915     -928.55019      0             -774.01848     -4.9588231    
SHAKE stats (type/ave/delta/count) on step 8970000
Bond:   1   1         1.75731e-06     4000
Angle:  1   109.47    0.000143467     2000
   8970000   94.237307     -927.95258      0             -773.9953       4.9707221    
SHAKE stats (type/ave/delta/count) on step 8980000
Bond:   1   1         1.73119e-06     4000
Angle:  1   109.47    0.000135713     2000
   8980000   93.995625     -928.32043      0             -774.75799     -6.5591539    
SHAKE stats (type/ave/delta/count) on step 8990000
Bond:   1   1         1.28579e-06     4000
Angle:  1   109.47    0.000109035     2000
   8990000   95.095803     -936.06857      0             -780.70875     -11.945947    
SHAKE stats (type/ave/delta/count) on step 9000000
Bond:   1   1         1.25982e-06     4000
Angle:  1   109.47    9.7898e-05      2000
   9000000   95.611071     -931.74246      0             -775.54084     -12.210649    
SHAKE stats (type/ave/delta/count) on step 9010000
Bond:   1   1         1.7311e-06      4000
Angle:  1   109.47    0.000161056     2000
   9010000   94.987718     -924.42539      0             -769.24216     -6.5025815    
SHAKE stats (type/ave/delta/count) on step 9020000
Bond:   1   1         1.3399e-06      4000
Angle:  1   109.47    0.000104315     2000
   9020000   97.312805     -924.4469       0             -765.46512      2.6620024    
SHAKE stats (type/ave/delta/count) on step 9030000
Bond:   1   1         1.56077e-06     4000
Angle:  1   109.47    0.000104635     2000
   9030000   94.967294     -925.81847      0             -770.6686       2.0741476    
SHAKE stats (type/ave/delta/count) on step 9040000
Bond:   1   1         1.16308e-06     4000
Angle:  1   109.47    9.173e-05       2000
   9040000   95.651794     -932.10156      0             -775.83341     -2.8099399    
SHAKE stats (type/ave/delta/count) on step 9050000
Bond:   1   1         1.1292e-06      4000
Angle:  1   109.47    9.49874e-05     2000
   9050000   95.163064     -926.53658      0             -771.06688     -11.572028    
SHAKE stats (type/ave/delta/count) on step 9060000
Bond:   1   1         1.1216e-06      4000
Angle:  1   109.47    9.4344e-05      2000
   9060000   92.262129     -926.40523      0             -775.67484     -7.3956984    
SHAKE stats (type/ave/delta/count) on step 9070000
Bond:   1   1         1.44414e-06     4000
Angle:  1   109.47    0.000107245     2000
   9070000   93.757981     -927.1183       0             -773.94411     -13.938014    
SHAKE stats (type/ave/delta/count) on step 9080000
Bond:   1   1         1.73264e-06     4000
Angle:  1   109.47    0.000150793     2000
   9080000   94.479507     -924.32414      0             -769.97118     -3.7129388    
SHAKE stats (type/ave/delta/count) on step 9090000
Bond:   1   1         1.34601e-06     4000
Angle:  1   109.47    0.000104996     2000
   9090000   93.532293     -927.28105      0             -774.47556     -6.314168     
SHAKE stats (type/ave/delta/count) on step 9100000
Bond:   1   1         1.32788e-06     4000
Angle:  1   109.47    0.000118441     2000
   9100000   94.758616     -931.34789      0             -776.53894     -4.0924721    
SHAKE stats (type/ave/delta/count) on step 9110000
Bond:   1   1         1.85235e-06     4000
Angle:  1   109.47    0.00011811      2000
   9110000   95.465595     -927.58382      0             -771.61987     -9.4699481    
SHAKE stats (type/ave/delta/count) on step 9120000
Bond:   1   1         1.18893e-06     4000
Angle:  1   109.47    9.46533e-05     2000
   9120000   94.626336     -928.08668      0             -773.49384     -5.6551804    
SHAKE stats (type/ave/delta/count) on step 9130000
Bond:   1   1         1.18199e-06     4000
Angle:  1   109.47    0.000106769     2000
   9130000   94.387375     -922.80248      0             -768.60003     -11.224859    
SHAKE stats (type/ave/delta/count) on step 9140000
Bond:   1   1         1.77e-06        4000
Angle:  1   109.47    0.000122835     2000
   9140000   93.196713     -924.52435      0             -772.26711     -10.72522     
SHAKE stats (type/ave/delta/count) on step 9150000
Bond:   1   1         1.42327e-06     4000
Angle:  1   109.47    0.000112741     2000
   9150000   95.447537     -928.87789      0             -772.94344     -2.6118133    
SHAKE stats (type/ave/delta/count) on step 9160000
Bond:   1   1         1.28622e-06     4000
Angle:  1   109.47    0.000108844     2000
   9160000   95.477566     -930.48836      0             -774.50485     -3.0175977    
SHAKE stats (type/ave/delta/count) on step 9170000
Bond:   1   1         1.16828e-06     4000
Angle:  1   109.47    0.000110473     2000
   9170000   94.730256     -929.92771      0             -775.16509     -6.8207794    
SHAKE stats (type/ave/delta/count) on step 9180000
Bond:   1   1         1.51828e-06     4000
Angle:  1   109.47    0.000125525     2000
   9180000   93.30933      -929.7321       0             -777.29087     -14.618347    
SHAKE stats (type/ave/delta/count) on step 9190000
Bond:   1   1         1.25881e-06     4000
Angle:  1   109.47    9.66154e-05     2000
   9190000   95.483804     -927.3889       0             -771.39519     -11.341871    
SHAKE stats (type/ave/delta/count) on step 9200000
Bond:   1   1         1.27472e-06     4000
Angle:  1   109.47    0.000104539     2000
   9200000   95.176632     -923.0604       0             -767.56853     -6.1510772    
SHAKE stats (type/ave/delta/count) on step 9210000
Bond:   1   1         1.31005e-06     4000
Angle:  1   109.47    9.37041e-05     2000
   9210000   94.810564     -925.45722      0             -770.56341     -6.9140332    
SHAKE stats (type/ave/delta/count) on step 9220000
Bond:   1   1         1.20344e-06     4000
Angle:  1   109.47    9.06409e-05     2000
   9220000   96.46804      -925.664        0             -768.06233     -11.889445    
SHAKE stats (type/ave/delta/count) on step 9230000
Bond:   1   1         1.34234e-06     4000
Angle:  1   109.47    9.90892e-05     2000
   9230000   93.286379     -925.37967      0             -772.97594      7.3732957    
SHAKE stats (type/ave/delta/count) on step 9240000
Bond:   1   1         1.14197e-06     4000
Angle:  1   109.47    9.07871e-05     2000
   9240000   93.396027     -926.96452      0             -774.38166     -12.207284    
SHAKE stats (type/ave/delta/count) on step 9250000
Bond:   1   1         1.18318e-06     4000
Angle:  1   109.47    9.34802e-05     2000
   9250000   93.668529     -932.21445      0             -779.1864      -12.619646    
SHAKE stats (type/ave/delta/count) on step 9260000
Bond:   1   1         1.54384e-06     4000
Angle:  1   109.47    0.000126268     2000
   9260000   93.395625     -926.83032      0             -774.24812     -3.3800348    
SHAKE stats (type/ave/delta/count) on step 9270000
Bond:   1   1         1.24927e-06     4000
Angle:  1   109.47    0.000103738     2000
   9270000   94.458638     -929.36501      0             -775.04614      3.0921164    
SHAKE stats (type/ave/delta/count) on step 9280000
Bond:   1   1         1.29698e-06     4000
Angle:  1   109.47    9.06116e-05     2000
   9280000   94.284008     -929.52402      0             -775.49044     -3.2634093    
SHAKE stats (type/ave/delta/count) on step 9290000
Bond:   1   1         1.36634e-06     4000
Angle:  1   109.47    0.000106824     2000
   9290000   97.997389     -929.6286       0             -769.52841     -2.1700123    
SHAKE stats (type/ave/delta/count) on step 9300000
Bond:   1   1         1.2941e-06      4000
Angle:  1   109.47    0.000109372     2000
   9300000   94.674342     -920.18819      0             -765.51692     -10.850461    
SHAKE stats (type/ave/delta/count) on step 9310000
Bond:   1   1         1.18386e-06     4000
Angle:  1   109.47    9.93374e-05     2000
   9310000   94.739647     -930.51853      0             -775.74057     -3.2797877    
SHAKE stats (type/ave/delta/count) on step 9320000
Bond:   1   1         1.24678e-06     4000
Angle:  1   109.47    9.25397e-05     2000
   9320000   93.734105     -923.19548      0             -770.06029     -10.865198    
SHAKE stats (type/ave/delta/count) on step 9330000
Bond:   1   1         1.39498e-06     4000
Angle:  1   109.47    0.000105896     2000
   9330000   94.965397     -925.84277      0             -770.696       -17.777024    
SHAKE stats (type/ave/delta/count) on step 9340000
Bond:   1   1         1.40866e-06     4000
Angle:  1   109.47    9.89973e-05     2000
   9340000   92.455642     -931.80499      0             -780.75845      0.15689429   
SHAKE stats (type/ave/delta/count) on step 9350000
Bond:   1   1         1.66693e-06     4000
Angle:  1   109.47    0.000142182     2000
   9350000   96.278541     -925.27676      0             -767.98468     -13.489563    
SHAKE stats (type/ave/delta/count) on step 9360000
Bond:   1   1         1.25163e-06     4000
Angle:  1   109.47    8.75089e-05     2000
   9360000   96.070455     -925.89631      0             -768.94418      2.9770871    
SHAKE stats (type/ave/delta/count) on step 9370000
Bond:   1   1         1.39872e-06     4000
Angle:  1   109.47    9.41707e-05     2000
   9370000   95.298536     -927.53666      0             -771.84563     -6.6299858    
SHAKE stats (type/ave/delta/count) on step 9380000
Bond:   1   1         1.61443e-06     4000
Angle:  1   109.47    0.000121065     2000
   9380000   95.416851     -930.98026      0             -775.09593     -16.47351     
SHAKE stats (type/ave/delta/count) on step 9390000
Bond:   1   1         1.12257e-06     4000
Angle:  1   109.47    9.33297e-05     2000
   9390000   93.84984      -922.35472      0             -769.03046     -7.6371263    
SHAKE stats (type/ave/delta/count) on step 9400000
Bond:   1   1         2.0556e-06      4000
Angle:  1   109.47    0.00012846      2000
   9400000   95.930764     -927.53385      0             -770.80994     -17.040899    
SHAKE stats (type/ave/delta/count) on step 9410000
Bond:   1   1         1.16788e-06     4000
Angle:  1   109.47    0.000115272     2000
   9410000   93.538677     -927.58048      0             -774.76456     -2.1216525    
SHAKE stats (type/ave/delta/count) on step 9420000
Bond:   1   1         1.20384e-06     4000
Angle:  1   109.47    0.00010583      2000
   9420000   96.042322     -925.93916      0             -769.033       -8.5605884    
SHAKE stats (type/ave/delta/count) on step 9430000
Bond:   1   1         1.4347e-06      4000
Angle:  1   109.47    9.55741e-05     2000
   9430000   95.026535     -927.39823      0             -772.15158      5.0260093    
SHAKE stats (type/ave/delta/count) on step 9440000
Bond:   1   1         1.2444e-06      4000
Angle:  1   109.47    0.000128057     2000
   9440000   95.817377     -930.10101      0             -773.56235      0.55383859   
SHAKE stats (type/ave/delta/count) on step 9450000
Bond:   1   1         9.45065e-07     4000
Angle:  1   109.47    9.16341e-05     2000
   9450000   94.764695     -928.56924      0             -773.75036     -0.17902831   
SHAKE stats (type/ave/delta/count) on step 9460000
Bond:   1   1         1.3283e-06      4000
Angle:  1   109.47    9.62033e-05     2000
   9460000   94.837565     -922.5301       0             -767.59217     -14.983969    
SHAKE stats (type/ave/delta/count) on step 9470000
Bond:   1   1         1.24944e-06     4000
Angle:  1   109.47    9.80461e-05     2000
   9470000   94.757121     -925.74545      0             -770.93894     -2.6710751    
SHAKE stats (type/ave/delta/count) on step 9480000
Bond:   1   1         1.38747e-06     4000
Angle:  1   109.47    0.000102784     2000
   9480000   96.471215     -927.96818      0             -770.36132     -11.606855    
SHAKE stats (type/ave/delta/count) on step 9490000
Bond:   1   1         1.41335e-06     4000
Angle:  1   109.47    0.000151551     2000
   9490000   94.004275     -927.49141      0             -773.91484     -9.0679787    
SHAKE stats (type/ave/delta/count) on step 9500000
Bond:   1   1         1.4795e-06      4000
Angle:  1   109.47    0.000110504     2000
   9500000   94.777778     -926.02729      0             -771.18704     -8.1555833    
SHAKE stats (type/ave/delta/count) on step 9510000
Bond:   1   1         1.30546e-06     4000
Angle:  1   109.47    0.000120208     2000
   9510000   94.620146     -930.02497      0             -775.44224     -3.1326868    
SHAKE stats (type/ave/delta/count) on step 9520000
Bond:   1   1         1.23759e-06     4000
Angle:  1   109.47    0.000121611     2000
   9520000   95.131802     -921.28553      0             -765.8669      -10.415775    
SHAKE stats (type/ave/delta/count) on step 9530000
Bond:   1   1         1.422e-06       4000
Angle:  1   109.47    0.000118511     2000
   9530000   95.595476     -931.03467      0             -774.85853     -2.9975806    
SHAKE stats (type/ave/delta/count) on step 9540000
Bond:   1   1         1.20206e-06     4000
Angle:  1   109.47    9.29133e-05     2000
   9540000   94.845016     -928.22782      0             -773.27772     -6.4157911    
SHAKE stats (type/ave/delta/count) on step 9550000
Bond:   1   1         1.57429e-06     4000
Angle:  1   109.47    9.92739e-05     2000
   9550000   95.698906     -927.78005      0             -771.43493     -14.802881    
SHAKE stats (type/ave/delta/count) on step 9560000
Bond:   1   1         1.35423e-06     4000
Angle:  1   109.47    0.000132489     2000
   9560000   96.520969     -925.24146      0             -767.55333     -8.309484     
SHAKE stats (type/ave/delta/count) on step 9570000
Bond:   1   1         1.0977e-06      4000
Angle:  1   109.47    8.90321e-05     2000
   9570000   98.758942     -929.02279      0             -767.67843     -2.5886854    
SHAKE stats (type/ave/delta/count) on step 9580000
Bond:   1   1         1.51794e-06     4000
Angle:  1   109.47    0.000118297     2000
   9580000   94.724637     -926.6193       0             -771.86586     -9.65303      
SHAKE stats (type/ave/delta/count) on step 9590000
Bond:   1   1         1.0562e-06      4000
Angle:  1   109.47    9.48562e-05     2000
   9590000   96.053641     -925.57008      0             -768.64543      5.0883538    
SHAKE stats (type/ave/delta/count) on step 9600000
Bond:   1   1         1.01764e-06     4000
Angle:  1   109.47    0.00012971      2000
   9600000   94.634297     -930.19968      0             -775.59383     -5.2542242    
SHAKE stats (type/ave/delta/count) on step 9610000
Bond:   1   1         1.32488e-06     4000
Angle:  1   109.47    8.9306e-05      2000
   9610000   96.008159     -924.85561      0             -768.00526     -9.0852588    
SHAKE stats (type/ave/delta/count) on step 9620000
Bond:   1   1         1.64292e-06     4000
Angle:  1   109.47    0.000129111     2000
   9620000   95.602509     -924.00406      0             -767.81643     -11.694226    
SHAKE stats (type/ave/delta/count) on step 9630000
Bond:   1   1         1.15047e-06     4000
Angle:  1   109.47    0.000101218     2000
   9630000   93.976287     -929.03113      0             -775.50029     -13.530648    
SHAKE stats (type/ave/delta/count) on step 9640000
Bond:   1   1         1.13358e-06     4000
Angle:  1   109.47    8.72708e-05     2000
   9640000   96.527284     -924.55186      0             -766.8534      -4.2773106    
SHAKE stats (type/ave/delta/count) on step 9650000
Bond:   1   1         1.85698e-06     4000
Angle:  1   109.47    0.000139286     2000
   9650000   94.890757     -927.67089      0             -772.64606     -3.658944     
SHAKE stats (type/ave/delta/count) on step 9660000
Bond:   1   1         1.22214e-06     4000
Angle:  1   109.47    9.13959e-05     2000
   9660000   93.935624     -930.16137      0             -776.69695      0.27646921   
SHAKE stats (type/ave/delta/count) on step 9670000
Bond:   1   1         1.43991e-06     4000
Angle:  1   109.47    0.000117907     2000
   9670000   96.640186     -927.8654       0             -769.98249     -4.3706362    
SHAKE stats (type/ave/delta/count) on step 9680000
Bond:   1   1         1.33961e-06     4000
Angle:  1   109.47    9.63346e-05     2000
   9680000   95.197849     -923.43984      0             -767.9133      -1.2942274    
SHAKE stats (type/ave/delta/count) on step 9690000
Bond:   1   1         1.35385e-06     4000
Angle:  1   109.47    9.68798e-05     2000
   9690000   93.966721     -922.30881      0             -768.7936       4.4785079    
SHAKE stats (type/ave/delta/count) on step 9700000
Bond:   1   1         1.39984e-06     4000
Angle:  1   109.47    0.0001116       2000
   9700000   95.528519     -928.04981      0             -771.98306     -10.809597    
SHAKE stats (type/ave/delta/count) on step 9710000
Bond:   1   1         1.63033e-06     4000
Angle:  1   109.47    0.000102994     2000
   9710000   94.753636     -921.29685      0             -766.49603     -3.2030576    
SHAKE stats (type/ave/delta/count) on step 9720000
Bond:   1   1         1.2211e-06      4000
Angle:  1   109.47    9.31891e-05     2000
   9720000   96.363242     -925.52622      0             -768.09576     -0.093000583  
SHAKE stats (type/ave/delta/count) on step 9730000
Bond:   1   1         1.10065e-06     4000
Angle:  1   109.47    0.000103148     2000
   9730000   95.608833     -924.11996      0             -767.922       -5.7627417    
SHAKE stats (type/ave/delta/count) on step 9740000
Bond:   1   1         1.25766e-06     4000
Angle:  1   109.47    0.000104776     2000
   9740000   94.060599     -924.03228      0             -770.3637       4.0830697    
SHAKE stats (type/ave/delta/count) on step 9750000
Bond:   1   1         1.12113e-06     4000
Angle:  1   109.47    9.05363e-05     2000
   9750000   94.661002     -924.85502      0             -770.20554     -9.2465952    
SHAKE stats (type/ave/delta/count) on step 9760000
Bond:   1   1         1.53623e-06     4000
Angle:  1   109.47    0.000121286     2000
   9760000   94.121889     -924.91877      0             -771.15006     -1.7072699    
SHAKE stats (type/ave/delta/count) on step 9770000
Bond:   1   1         1.37373e-06     4000
Angle:  1   109.47    0.000100184     2000
   9770000   96.737513     -927.92006      0             -769.87815     -3.2683317    
SHAKE stats (type/ave/delta/count) on step 9780000
Bond:   1   1         1.12573e-06     4000
Angle:  1   109.47    8.73173e-05     2000
   9780000   95.406475     -923.42508      0             -767.55771     -2.4208119    
SHAKE stats (type/ave/delta/count) on step 9790000
Bond:   1   1         1.56122e-06     4000
Angle:  1   109.47    0.000123436     2000
   9790000   94.581892     -926.33251      0             -771.81227     -11.687644    
SHAKE stats (type/ave/delta/count) on step 9800000
Bond:   1   1         1.5249e-06      4000
Angle:  1   109.47    9.88884e-05     2000
   9800000   92.678089     -926.21512      0             -774.80517     -8.4268129    
SHAKE stats (type/ave/delta/count) on step 9810000
Bond:   1   1         1.7878e-06      4000
Angle:  1   109.47    0.000113688     2000
   9810000   95.480916     -925.39931      0             -769.41033     -8.8843498    
SHAKE stats (type/ave/delta/count) on step 9820000
Bond:   1   1         1.31466e-06     4000
Angle:  1   109.47    9.44793e-05     2000
   9820000   94.548926     -922.17022      0             -767.70385     -10.284074    
SHAKE stats (type/ave/delta/count) on step 9830000
Bond:   1   1         1.1857e-06      4000
Angle:  1   109.47    9.68876e-05     2000
   9830000   94.038984     -923.11105      0             -769.47778      0.55417713   
SHAKE stats (type/ave/delta/count) on step 9840000
Bond:   1   1         1.07749e-06     4000
Angle:  1   109.47    0.000106819     2000
   9840000   94.475445     -926.19235      0             -771.84602      4.4760188    
SHAKE stats (type/ave/delta/count) on step 9850000
Bond:   1   1         1.13007e-06     4000
Angle:  1   109.47    9.37015e-05     2000
   9850000   95.123357     -934.14761      0             -778.74278     -5.5713922    
SHAKE stats (type/ave/delta/count) on step 9860000
Bond:   1   1         1.21475e-06     4000
Angle:  1   109.47    9.94022e-05     2000
   9860000   93.908735     -928.05149      0             -774.63101      2.404696     
SHAKE stats (type/ave/delta/count) on step 9870000
Bond:   1   1         1.24835e-06     4000
Angle:  1   109.47    0.00010628      2000
   9870000   95.42248      -930.19844      0             -774.30493     -7.677783     
SHAKE stats (type/ave/delta/count) on step 9880000
Bond:   1   1         1.85282e-06     4000
Angle:  1   109.47    0.000136639     2000
   9880000   96.128933     -926.45034      0             -769.40268     -5.6252954    
SHAKE stats (type/ave/delta/count) on step 9890000
Bond:   1   1         1.71702e-06     4000
Angle:  1   109.47    0.000142695     2000
   9890000   94.648829     -921.1834       0             -766.55381     -6.3387098    
SHAKE stats (type/ave/delta/count) on step 9900000
Bond:   1   1         1.33101e-06     4000
Angle:  1   109.47    0.000106695     2000
   9900000   94.440812     -921.33025      0             -767.04051     -9.3455708    
SHAKE stats (type/ave/delta/count) on step 9910000
Bond:   1   1         1.40692e-06     4000
Angle:  1   109.47    0.000111725     2000
   9910000   95.970101     -922.89595      0             -766.10777     -9.1062552    
SHAKE stats (type/ave/delta/count) on step 9920000
Bond:   1   1         1.06702e-06     4000
Angle:  1   109.47    8.67749e-05     2000
   9920000   95.128438     -927.34981      0             -771.93668     -6.5431716    
SHAKE stats (type/ave/delta/count) on step 9930000
Bond:   1   1         1.58686e-06     4000
Angle:  1   109.47    0.000124951     2000
   9930000   94.963723     -927.14054      0             -771.99651     -6.1748154    
SHAKE stats (type/ave/delta/count) on step 9940000
Bond:   1   1         1.18931e-06     4000
Angle:  1   109.47    9.14011e-05     2000
   9940000   95.842892     -930.04121      0             -773.46086     -13.225291    
SHAKE stats (type/ave/delta/count) on step 9950000
Bond:   1   1         1.32613e-06     4000
Angle:  1   109.47    0.00011858      2000
   9950000   95.451506     -921.70163      0             -765.7607      -10.671857    
SHAKE stats (type/ave/delta/count) on step 9960000
Bond:   1   1         1.3203e-06      4000
Angle:  1   109.47    9.28938e-05     2000
   9960000   93.9144       -928.4324       0             -775.00267     -5.8685108    
SHAKE stats (type/ave/delta/count) on step 9970000
Bond:   1   1         1.32612e-06     4000
Angle:  1   109.47    9.20099e-05     2000
   9970000   94.332634     -925.40947      0             -771.29646     -3.9313157    
SHAKE stats (type/ave/delta/count) on step 9980000
Bond:   1   1         1.38128e-06     4000
Angle:  1   109.47    0.000111228     2000
   9980000   94.124121     -921.01401      0             -767.24165     -11.467669    
SHAKE stats (type/ave/delta/count) on step 9990000
Bond:   1   1         1.20919e-06     4000
Angle:  1   109.47    9.10056e-05     2000
   9990000   94.453168     -926.12809      0             -771.81815     -14.045385    
SHAKE stats (type/ave/delta/count) on step 10000000
Bond:   1   1         1.62119e-06     4000
Angle:  1   109.47    0.00012575      2000
  10000000   95.731798     -930.66893      0             -774.27008     -3.7108402    
Loop time of 61319.8 on 640 procs for 10000000 steps with 14640 atoms

Performance: 14.090 ns/day, 1.703 hours/ns, 163.080 timesteps/s, 2.387 Matom-step/s
100.0% CPU use with 640 MPI tasks x 1 OpenMP threads

MPI task timing breakdown:
Section |  min time  |  avg time  |  max time  |%varavg| %total
---------------------------------------------------------------
Pair    | 0.91928    | 501.9      | 8208.5     |6004.4 |  0.82
Bond    | 0.87578    | 1.6142     | 3.122      |  38.4 |  0.00
Kspace  | 46041      | 54369      | 55467      | 591.3 | 88.66
Neigh   | 2152.8     | 2210.6     | 2241       |  59.4 |  3.61
Comm    | 36.521     | 461.28     | 2439.3     |2631.5 |  0.75
Output  | 0.38181    | 0.39386    | 0.39997    |   0.6 |  0.00
Modify  | 2052.4     | 3549.1     | 4685.6     | 888.8 |  5.79
Other   |            | 225.8      |            |       |  0.37

Nlocal:         22.875 ave         598 max           0 min
Histogram: 554 59 10 4 2 2 1 0 1 7
Nghost:        224.908 ave        3402 max           0 min
Histogram: 463 119 19 16 10 6 3 2 0 2
Neighs:        3170.29 ave      165691 max           0 min
Histogram: 621 6 3 1 1 1 1 1 3 2

Total # of neighbors = 2028988
Ave neighs/atom = 138.59208
Ave special neighs/atom = 0.81967213
Neighbor list builds = 501124
Dangerous builds = 0

write_restart nvt_equi.restart.*
System init for write_restart ...
PPPM initialization ...
  using 12-bit tables for long-range coulomb (src/kspace.cpp:342)
  G vector (1/distance) = 0.28515695
  grid = 80 80 80
  stencil order = 5
  estimated absolute RMS force accuracy = 0.00017907316
  estimated relative force accuracy = 1.2435943e-05
  using double precision KISS FFT
  3d grid and FFT values/proc = 4335 960
Generated 0 of 3 mixed pair_coeff terms from geometric mixing rule
write_data nvt_equi_final.lammps-data pair ij
System init for write_data ...
PPPM initialization ...
  using 12-bit tables for long-range coulomb (src/kspace.cpp:342)
  G vector (1/distance) = 0.28515695
  grid = 80 80 80
  stencil order = 5
  estimated absolute RMS force accuracy = 0.00017907316
  estimated relative force accuracy = 1.2435943e-05
  using double precision KISS FFT
  3d grid and FFT values/proc = 4335 960
Generated 0 of 3 mixed pair_coeff terms from geometric mixing rule

Total wall time: 17:02:50
